%chk=t03_mid_chain_diol_C12_conf03.chk
%nprocshared=8
%mem=16GB
#P B3LYP/6-31G(d) SCRF=(PCM,Solvent=Water) Pop=MK NoSymm

t03_mid_chain_diol_C12 conformer 3 (Boltzmann pop=0.111)

0 1
O     -0.36538998    -2.84889851    -0.12121973
C      0.53146884    -1.74445162    -0.12829996
C      1.93725941    -2.18568331     0.32666694
O      2.38321248    -3.28985412    -0.44923172
C      2.89933195    -0.96742508     0.27098397
C      4.32861773    -1.35778099     0.58014960
C      4.70211788    -1.56332427     1.92488144
O      3.83680976    -1.27591150     2.95963730
C      5.96593956    -2.05145996     2.22272979
C      6.88404977    -2.33485309     1.22489774
O      8.12876075    -2.81299685     1.58580102
C      6.50878608    -2.11611380    -0.10063840
C      5.25713804    -1.62630237    -0.42839773
C      4.92288625    -1.49490653    -1.88716336
O      4.34189974    -2.66257736    -2.42439591
O      2.39343260     0.09184056     1.11963748
C      1.09722393     0.56162580     0.71778322
C      0.65404725     1.75108973     1.56152785
O      0.42558813     1.40852427     2.90441706
C      0.05348172    -0.57833289     0.77261064
O     -1.28141831    -0.14701806     0.51617106
C     -1.43028613     0.35622599    -0.79799921
O     -0.68307764     1.53934577    -1.09700801
C     -0.58831082     1.77963408    -2.50771901
C      0.21061222     3.06195002    -2.74064242
O      1.45050372     3.04418507    -2.07497452
C      2.35212552     2.25032659    -2.73091074
O      2.12718804     1.67057376    -3.77705753
C      3.67958472     2.11583915    -2.07614956
C      3.81079603     2.34451880    -0.71585591
C      5.02281007     2.17579266    -0.08973024
C      6.14851745     1.78535150    -0.81202284
C      7.44318992     1.57048660    -0.13127232
C      8.63986551     1.98270728    -0.71364330
C      9.84358754     1.76819071    -0.07764731
C      9.87645938     1.13719786     1.14929101
C      8.70120614     0.72205438     1.74111047
C      7.49632661     0.93907051     1.10948655
C      6.01518446     1.58370078    -2.18528129
C      4.79722239     1.74259573    -2.80641161
C     -1.99401322     1.87051192    -3.17704590
O     -2.65164200     3.07640047    -2.84278784
C     -2.89811741     0.67874540    -2.77554967
O     -4.19986494     0.85904261    -3.29790125
C     -2.89854961     0.57755456    -1.23751568
O     -3.79743924    -0.41206779    -0.76743984
C     -5.12749340     0.09500508    -0.63408492
O     -5.42197706     0.64538332     0.66048696
C     -6.72668001     1.23838637     0.71446576
C     -6.94944435     1.98863684     2.02840400
O     -6.04090348     3.05388769     2.20352507
C     -7.80326272     0.14853761     0.47841299
O     -7.79801610    -0.83376032     1.49237286
C     -7.59681471    -0.51675383    -0.90091048
O     -8.49722665    -1.59664275    -1.06153340
C     -6.13913206    -1.00573109    -1.04898874
O     -5.89794430    -1.41707290    -2.38799699
C     -1.09900066    -2.91333536    -1.27332346
O     -0.93517434    -2.21692117    -2.25300535
C     -2.21972236    -3.91999998    -1.25434428
C     -3.39001843    -3.38964192    -0.43302039
C     -3.03178684    -3.20398622     1.04523778
C     -3.84016155    -2.09772717     1.72767924
O     -5.23751092    -2.36525800     1.70659551
C     -3.32445030    -1.80970127     3.14334436
C     -3.72633666    -0.42000030     3.64958699
O     -5.10702014    -0.17413848     3.44209655
C     -2.88259532     0.69834192     3.02387618
C     -3.27875072     2.07172349     3.55181256
C     -2.49179601     3.22171749     2.91870837
C     -2.73223094     3.35240221     1.42295960
H      0.62187797    -1.39896049    -1.16564598
H      1.88196060    -2.52244846     1.37172928
H      1.71729313    -3.99790013    -0.41269437
H      2.85741287    -0.55959306    -0.74436084
H      3.10288807    -0.75616235     2.57432884
H      6.24226151    -2.21258308     3.24824310
H      8.65012860    -3.05423078     0.79966566
H      7.20481710    -2.34451622    -0.88640092
H      4.25558916    -0.64795105    -2.07532540
H      5.83157769    -1.29531378    -2.46651564
H      3.63581331    -2.96808583    -1.81116333
H      1.19983837     0.88134403    -0.32766516
H     -0.28829019     2.13755137     1.16425128
H      1.38482028     2.56580578     1.51720794
H      1.25405897     1.10794794     3.32197075
H      0.02889953    -0.94936200     1.80624086
H     -1.01994149    -0.41792705    -1.45537235
H     -0.02536543     0.93013273    -2.92400790
H      0.38398671     3.24360269    -3.80790069
H     -0.35632955     3.91097219    -2.34226487
H      2.94467867     2.65379171    -0.15751198
H      5.11029699     2.35073299     0.96898558
H      8.61454939     2.48569640    -1.66528771
H     10.76147737     2.09436292    -0.53950139
H     10.81906737     0.96638891     1.64359063
H      8.72621813     0.21747643     2.69352315
H      6.58135519     0.59639420     1.56158568
H      6.87435705     1.27553572    -2.75624243
H      4.69058944     1.56796114    -3.86396214
H     -1.86762227     1.87548482    -4.27187879
H     -3.58030342     3.01960098    -3.14150132
H     -2.49349196    -0.25819090    -3.18966907
H     -4.75394908     0.07518257    -3.07307947
H     -3.22967778     1.53769951    -0.82463757
H     -5.22611850     0.92919963    -1.33898661
H     -6.76270500     1.96399901    -0.11083311
H     -7.97589136     2.36796674     2.09987776
H     -6.81787598     1.30329136     2.87148520
H     -6.24408258     3.78243362     1.58482666
H     -8.80547810     0.60269267     0.51857885
H     -6.91263077    -1.26405738     1.55041931
H     -7.80963530     0.19594734    -1.71060320
H     -8.60641608    -2.05167283    -0.20355848
H     -5.97072240    -1.87614405    -0.40230821
H     -6.60815973    -2.01138072    -2.68518210
H     -2.52203606    -4.12893346    -2.28532990
H     -1.85572324    -4.86116424    -0.83343565
H     -3.68371246    -2.42227442    -0.85382324
H     -4.27325547    -4.03179365    -0.53232667
H     -3.14586684    -4.14407612     1.59328268
H     -1.97053697    -2.94771832     1.12533668
H     -3.72504367    -1.18316556     1.12574408
H     -5.42190724    -3.15943728     2.24216478
H     -2.23403519    -1.90154925     3.17245463
H     -3.71317052    -2.58010815     3.81408177
H     -3.58952940    -0.38119958     4.74362861
H     -5.23315348     0.00789618     2.48589407
H     -1.81647080     0.51852738     3.20002944
H     -3.00970019     0.66956339     1.93827875
H     -4.35021968     2.22538550     3.37738737
H     -3.16010689     2.08589144     4.64219758
H     -2.75454884     4.16479940     3.41652119
H     -1.42206014     3.07853805     3.11822990
H     -2.37539551     2.47499293     0.88549130
H     -3.79638685     3.44578056     1.20479252
H     -2.22684733     4.22137635     0.99700696

