%chk=t03_mid_chain_diol_C12_conf04.chk
%nprocshared=8
%mem=16GB
#P B3LYP/6-31G(d) SCRF=(PCM,Solvent=Water) Pop=MK NoSymm

t03_mid_chain_diol_C12 conformer 4 (Boltzmann pop=0.087)

0 1
O     -0.38331374    -3.12203765    -0.12849881
C      0.55364465    -2.06587995    -0.31635116
C      1.96332280    -2.52917357     0.11210676
O      2.35700596    -3.67427271    -0.63194370
C      2.98217118    -1.36576700    -0.02757826
C      4.38500683    -1.82075130     0.30455242
C      4.84383660    -1.80905923     1.63817090
O      4.07126799    -1.29818842     2.65896094
C      6.10482897    -2.30696870     1.93335738
C      6.93810712    -2.79920973     0.94147579
O      8.20579566    -3.22434108     1.29108533
C      6.46447428    -2.82265093    -0.37065563
C      5.20109773    -2.35663583    -0.69003591
C      4.72333931    -2.46010309    -2.11125478
O      4.47604680    -1.20061855    -2.71576952
O      2.53488045    -0.21491888     0.72651840
C      1.26221249     0.27765958     0.28260725
C      0.90732416     1.58421855     0.97886049
O      0.70639241     1.42875656     2.35877720
C      0.16961444    -0.79665994     0.48657717
O     -1.16102662    -0.33060817     0.26471688
C     -1.38826280     0.04160387    -1.08276199
O     -0.59514783     1.13388562    -1.55717734
C     -0.64792207     1.28398272    -2.98437913
C      0.21465748     2.47896681    -3.38813392
O      1.55778403     2.29217280    -2.99390831
C      1.88073472     3.04762225    -1.89619790
O      1.16149260     3.88789261    -1.38883488
C      3.21870350     2.77035561    -1.31558753
C      3.77268697     3.60869266    -0.36082169
C      5.00016406     3.32142277     0.19231358
C      5.70980667     2.18461666    -0.19333912
C      7.02002932     1.85680171     0.40661562
C      7.95579207     2.84650581     0.70014653
C      9.17289409     2.52094423     1.26030044
C      9.48002402     1.20408343     1.53848211
C      8.56613169     0.21156870     1.25267532
C      7.35116478     0.53573817     0.69140605
C      5.14077503     1.34750763    -1.15033678
C      3.91686102     1.63869449    -1.70186797
C     -2.10850273     1.44764742    -3.50252466
O     -2.63754427     2.71233584    -3.15034458
C     -3.01421085     0.32121640    -2.94784165
O     -4.35196879     0.48273408    -3.37944667
C     -2.87701195     0.32814447    -1.41299553
O     -3.78708382    -0.56216515    -0.79405453
C     -5.07489885     0.03159723    -0.61743593
O     -5.23315204     0.74871969     0.61719211
C     -6.50261929     1.41112121     0.69806542
C     -6.57869828     2.33746489     1.91240687
O     -5.61193018     3.36415975     1.86863095
C     -7.63907351     0.35721378     0.69338803
O     -7.58079552    -0.49478218     1.81780514
C     -7.58355716    -0.47781980    -0.60600717
O     -8.53689222    -1.52250597    -0.55548703
C     -6.16571887    -1.05428947    -0.81450839
O     -6.05873667    -1.62664265    -2.11131488
C     -1.21883601    -3.26755527    -1.20114013
O     -1.10181593    -2.70304633    -2.26834420
C     -2.39091783    -4.18393642    -0.96377068
C     -3.45425322    -3.47577679    -0.13019143
C     -2.95813384    -3.11618202     1.27379995
C     -3.67185370    -1.90332534     1.87761179
O     -5.07246199    -2.11596931     2.01135461
C     -3.02179634    -1.45932714     3.19464244
C     -3.32098756     0.00322475     3.54391441
O     -4.70515149     0.28794027     3.43406810
C     -2.49835037     0.98815867     2.70204582
C     -2.76955844     2.43774746     3.08677999
C     -1.93721913     3.45052014     2.29492517
C     -2.25605134     3.45919770     0.80859545
H      0.59226110    -1.83667890    -1.38851799
H      1.93012761    -2.82405256     1.17065936
H      1.65368571    -4.34643715    -0.59918381
H      2.98623656    -1.03393243    -1.07359418
H      3.33016793    -0.82353285     2.23274635
H      6.45546020    -2.28892887     2.94851678
H      8.65406418    -3.63766386     0.53156318
H      7.09547876    -3.21235759    -1.14769417
H      5.46664590    -2.99983115    -2.70991075
H      3.79978069    -3.05059604    -2.14277196
H      4.29592003    -1.29670841    -3.66950728
H      1.36217038     0.46427000    -0.79514508
H     -0.02144171     1.97351354     0.55439816
H      1.68184787     2.34046546     0.81484113
H      1.52616817     1.11746824     2.78560896
H      0.18580845    -1.07061171     1.55046485
H     -1.08469259    -0.82257777    -1.68386736
H     -0.20413487     0.36875581    -3.40472473
H      0.19450593     2.63846348    -4.47211219
H     -0.17627038     3.38261817    -2.90561588
H      3.22224233     4.48321917    -0.05662803
H      5.41404167     3.96770864     0.94733759
H      7.72508398     3.87272747     0.47047005
H      9.88795925     3.29721174     1.48001948
H     10.43178377     0.95170683     1.97705752
H      8.79649384    -0.81950265     1.46803559
H      6.63395654    -0.23566803     0.47559995
H      5.66227773     0.45733295    -1.45783411
H      3.47787213     0.98036192    -2.43198027
H     -2.10457295     1.40108174    -4.60347260
H     -3.57360562     2.76106609    -3.41727592
H     -2.66202154    -0.65320045    -3.32179636
H     -4.90098446    -0.26164933    -3.03740174
H     -3.11347644     1.33402574    -1.04680945
H     -5.19386843     0.78269561    -1.40726330
H     -6.58088017     2.02461159    -0.21104367
H     -7.57694100     2.78024265     2.01157934
H     -6.40675448     1.76252072     2.82766554
H     -5.81632951     3.99540967     1.15090691
H     -8.61482946     0.86271694     0.76168205
H     -6.71078223    -0.95773865     1.85489867
H     -7.83882073     0.14281990    -1.47693502
H     -8.58450137    -1.86470183     0.35880288
H     -5.97805199    -1.85332714    -0.08620215
H     -6.81810803    -2.21101489    -2.27820835
H     -2.79224521    -4.50018560    -1.93164274
H     -2.04648833    -5.08700907    -0.45246572
H     -3.73490082    -2.55707114    -0.65534688
H     -4.37441627    -4.06854230    -0.06709638
H     -3.04376664    -3.97472767     1.94642669
H     -1.88830879    -2.89013504     1.22529116
H     -3.58653791    -1.07581791     1.15698042
H     -5.22985033    -2.83254305     2.65439247
H     -1.93768038    -1.60199829     3.14524133
H     -3.37906427    -2.11527211     3.99247960
H     -3.07657486     0.17509677     4.60594006
H     -4.91416211     0.35508236     2.47768212
H     -1.43018855     0.76736780     2.79883128
H     -2.73469073     0.83567256     1.64556172
H     -3.83570734     2.65164886     2.94861418
H     -2.58873033     2.56130715     4.16159681
H     -2.09101553     4.45651951     2.70774292
H     -0.87201553     3.23669102     2.44974868
H     -2.04248629     2.49472300     0.35088695
H     -3.31264335     3.66510856     0.63631067
H     -1.67609951     4.20866834     0.26570990

