%chk=t03_mid_chain_diol_C12_conf01.chk
%nprocshared=8
%mem=16GB
#P B3LYP/6-31G(d) SCRF=(PCM,Solvent=Water) Pop=MK NoSymm

t03_mid_chain_diol_C12 conformer 1 (Boltzmann pop=0.156)

0 1
O     -0.36558308    -3.13514710    -0.12061546
C      0.56140051    -2.07694651    -0.33899287
C      1.98538745    -2.53361011     0.04598070
O      2.34914252    -3.68529360    -0.70421481
C      2.98898650    -1.36279343    -0.14193709
C      4.41108332    -1.78457222     0.15656089
C      4.79895873    -1.94848171     1.50258648
O      3.95071433    -1.60215726     2.53424295
C      6.06016272    -2.44337521     1.80005450
C      6.96232367    -2.76742011     0.79966905
O      8.21878566    -3.21597674     1.16000499
C      6.56769086    -2.59997807    -0.52812682
C      5.31792030    -2.10444102    -0.85552272
C      4.95886785    -2.00010748    -2.31077368
O      4.24910386    -3.12375312    -2.78804096
O      2.56645276    -0.21731432     0.63371693
C      1.27662616     0.27337321     0.24177573
C      0.93769513     1.56222200     0.97695672
O      0.76334790     1.37222502     2.35587459
C      0.19225987    -0.80518245     0.46595587
O     -1.14123925    -0.34026828     0.25746126
C     -1.37984920     0.03473884    -1.08761312
O     -0.59025364     1.12763717    -1.56696100
C     -0.64849842     1.27805071    -2.99386384
C      0.20330042     2.48017938    -3.40049982
O      1.54638618     2.31895011    -2.99487442
C      1.84359597     3.08136355    -1.89476833
O      1.09557300     3.89768992    -1.38969810
C      3.18338709     2.84228118    -1.30021153
C      3.62606431     3.59588641    -0.22390840
C      4.83694089     3.32229098     0.37001287
C      5.64360944     2.28769059    -0.10062126
C      6.92446773     1.95434176     0.55895560
C      7.81101982     2.94589007     0.97302335
C      8.99949137     2.61404655     1.58819370
C      9.32499457     1.28957458     1.80297391
C      8.45810633     0.29536374     1.39989367
C      7.27159021     0.62558240     0.78396970
C      5.20056308     1.55062681    -1.19699168
C      3.98876687     1.82452499    -1.78605362
C     -2.11230007     1.43400301    -3.50691387
O     -2.64341201     2.69882086    -3.15824583
C     -3.01423960     0.30852452    -2.94371289
O     -4.35427278     0.46642051    -3.36975040
C     -2.86987062     0.32258287    -1.40947527
O     -3.77909432    -0.56215394    -0.78263932
C     -5.06318189     0.03774646    -0.60349659
O     -5.20862738     0.77318433     0.62138949
C     -6.47543472     1.44017773     0.70310650
C     -6.53759172     2.38571525     1.90310657
O     -5.56765648     3.40784154     1.83348699
C     -7.61321552     0.38829721     0.72625427
O     -7.54229962    -0.44624321     1.86290424
C     -7.57295462    -0.46744959    -0.56031626
O     -8.52528387    -1.51101874    -0.48146513
C     -6.15790102    -1.04793709    -0.77634201
O     -6.06362487    -1.63414263    -2.06810584
C     -1.22801500    -3.28505068    -1.17104005
O     -1.13639319    -2.72640559    -2.24375844
C     -2.39833907    -4.19294803    -0.89715806
C     -3.44548261    -3.46206711    -0.06268810
C     -2.92243264    -3.06881191     1.32244520
C     -3.62417661    -1.84155162     1.91107087
O     -5.02273296    -2.04879152     2.07276439
C     -2.95161461    -1.36920876     3.20685774
C     -3.24621728     0.10033557     3.53059344
O     -4.63163627     0.38267268     3.43496369
C     -2.43560080     1.06833154     2.65760324
C     -2.70524365     2.52590761     3.01316583
C     -1.87382862     3.52347581     2.20057551
C     -2.19227469     3.50578928     0.71391214
H      0.56647607    -1.85327572    -1.41283764
H      1.99011030    -2.81963886     1.10737947
H      1.66273649    -4.36675751    -0.60281743
H      2.92671653    -1.04217642    -1.18695138
H      3.24110538    -1.05471399     2.14060196
H      6.35248869    -2.56353109     2.82665776
H      8.71968405    -3.51114834     0.37873502
H      7.25153584    -2.86170983    -1.31417961
H      4.37686387    -1.09606316    -2.51753439
H      5.86597911    -1.91502235    -2.92035155
H      3.56942356    -3.38153800    -2.12345504
H      1.34070554     0.48115645    -0.83468538
H      0.00186544     1.96333067     0.58042589
H      1.71068580     2.32005890     0.81889995
H      1.59557315     1.06761734     2.76249745
H      0.22243198    -1.07473218     1.53045438
H     -1.08210817    -0.82881028    -1.69238857
H     -0.19962678     0.36608808    -3.41575029
H      0.18971662     2.63046801    -4.48592140
H     -0.20394145     3.38268494    -2.92939245
H      2.99882852     4.38985301     0.14588493
H      5.16074426     3.89321775     1.22349352
H      7.56375487     3.97860969     0.79514136
H      9.67762698     3.39141131     1.90128572
H     10.25471535     1.03255475     2.28415373
H      8.70351856    -0.74140388     1.56583472
H      6.58825888    -0.14668787     0.47878911
H      5.82271120     0.76090536    -1.58177384
H      3.64290798     1.25076859    -2.62920287
H     -2.11274419     1.38257279    -4.60767630
H     -3.57901178     2.74599539    -3.42670897
H     -2.66316247    -0.66718086    -3.31547315
H     -4.90149431    -0.27650307    -3.02186199
H     -3.10264728     1.33043586    -1.04628932
H     -5.18658224     0.77843290    -1.40235142
H     -6.56077197     2.03924174    -0.21491681
H     -7.53334492     2.83357926     2.00459892
H     -6.35863138     1.82511192     2.82594993
H     -5.77778896     4.03034982     1.11000401
H     -8.58773813     0.89570291     0.79804192
H     -6.67003621    -0.90483214     1.90027639
H     -7.83891904     0.13885706    -1.43814154
H     -8.56030169    -1.84017047     0.43820208
H     -5.96430724    -1.83888140    -0.04071924
H     -6.82403849    -2.22049686    -2.22257720
H     -2.81556515    -4.52844633    -1.85171939
H     -2.04849396    -5.08564641    -0.37143506
H     -3.73368266    -2.55590222    -0.60554171
H     -4.36527100    -4.05120589     0.03190750
H     -2.99464785    -3.91100943     2.01693386
H     -1.85367028    -2.84454059     1.24739550
H     -3.55005092    -1.03044427     1.17075157
H     -5.17138944    -2.74929103     2.73516218
H     -1.86836965    -1.51209828     3.14129034
H     -3.29396786    -2.00872570     4.02431291
H     -2.98725390     0.29388012     4.58547059
H     -4.85579152     0.42513851     2.48062403
H     -1.36628105     0.85112548     2.74891904
H     -2.68242815     0.89187086     1.60720616
H     -3.77171281     2.73731347     2.87373809
H     -2.52196541     2.67071402     4.08494140
H     -2.02811213     4.53706843     2.59436119
H     -0.80833267     3.31423976     2.35982079
H     -1.97974535     2.53372028     0.27204816
H     -3.24849937     3.71030801     0.53748389
H     -1.61074240     4.24460043     0.15808667

