%chk=t03_mid_chain_diol_C12_conf05.chk
%nprocshared=8
%mem=16GB
#P B3LYP/6-31G(d) SCRF=(PCM,Solvent=Water) Pop=MK NoSymm

t03_mid_chain_diol_C12 conformer 5 (Boltzmann pop=0.069)

0 1
O     -0.35374868    -2.92134273    -0.14801351
C      0.52987539    -1.80559429    -0.16149932
C      1.93807311    -2.21874755     0.31174161
O      2.41116971    -3.32090338    -0.45102440
C      2.88139518    -0.98499643     0.25688831
C      4.31148100    -1.35238219     0.58923396
C      4.66782162    -1.54364630     1.94066459
O      3.78223309    -1.26179230     2.95964598
C      5.93305025    -2.01398189     2.26030490
C      6.86854193    -2.29404046     1.27772267
O      8.11368191    -2.75445333     1.65968042
C      6.51002441    -2.08915694    -0.05468511
C      5.25789675    -1.61572814    -0.40385042
C      4.94384736    -1.49461838    -1.86792820
O      4.38011976    -2.66940533    -2.40794671
O      2.34996331     0.07809398     1.08657584
C      1.05124461     0.51908354     0.66255329
C      0.56483808     1.71443632     1.47437131
O      0.37801551     1.40507068     2.83148700
C      0.02815352    -0.63768576     0.72273268
O     -1.30762546    -0.22647381     0.44784606
C     -1.44358438     0.27272465    -0.86915854
O     -0.68183810     1.44538390    -1.17396351
C     -0.58522775     1.68831658    -2.58432251
C      0.21563545     2.97138606    -2.80796860
O      1.44857177     2.95800912    -2.12863916
C      2.36502603     2.17671836    -2.77905402
O      2.15536843     1.59566992    -3.82760086
C      3.69058284     2.06223086    -2.11594655
C      3.80735699     2.27564934    -0.75178380
C      5.01998921     2.13299105    -0.12039772
C      6.16059675     1.78421405    -0.84060028
C      7.45761286     1.60123270    -0.15481484
C      8.64390943     2.05977461    -0.72365096
C      9.84997762     1.87570744    -0.08250632
C      9.89573695     1.22942942     1.13606429
C      8.73087098     0.76877147     1.71459239
C      7.52364465     0.95535512     1.07779793
C      6.04052092     1.59450491    -2.21679489
C      4.82228335     1.72776378    -2.84351003
C     -1.98960052     1.78915344    -3.25723215
O     -2.63159760     3.00956998    -2.94641422
C     -2.91034826     0.61522551    -2.84202860
O     -4.21153061     0.80739461    -3.36197504
C     -2.90763517     0.51846475    -1.30310585
O     -3.81794482    -0.46184544    -0.83643699
C     -5.13640048     0.06782513    -0.69140889
O     -5.39996763     0.64203968     0.59825335
C     -6.69120210     1.26017525     0.65740870
C     -6.87060921     2.06211747     1.94677843
O     -5.90643036     3.08236183     2.08347278
C     -7.78961854     0.18293080     0.46950523
O     -7.77492378    -0.78029477     1.50140687
C     -7.62152457    -0.51145402    -0.90168355
O     -8.53885450    -1.58237958    -1.02182045
C     -6.17266582    -1.02083749    -1.07653576
O     -5.96283000    -1.44027446    -2.41845535
C     -1.09281741    -2.99679373    -1.29659876
O     -0.93010645    -2.31324388    -2.28547902
C     -2.22167919    -3.99391612    -1.26118426
C     -3.39181086    -3.43491874    -0.45832188
C     -3.03835667    -3.22555300     1.01722051
C     -3.84666214    -2.10934727     1.68361787
O     -5.24525612    -2.37033814     1.65693293
C     -3.33849762    -1.81703994     3.10068239
C     -3.73255753    -0.42277203     3.59974639
O     -5.10847954    -0.16101673     3.38090055
C     -2.86875870     0.68750354     2.98747946
C     -3.23514387     2.05719830     3.54397463
C     -2.40302237     3.19156323     2.94813524
C     -2.79230598     4.55498156     3.49577438
H      0.62254500    -1.47022724    -1.20194421
H      1.87717695    -2.54844769     1.35872203
H      1.75684965    -4.03974971    -0.41706891
H      2.84772507    -0.58996173    -0.76379359
H      3.04794112    -0.75439333     2.55866680
H      6.19674010    -2.16420888     3.29075828
H      8.64786482    -2.99777939     0.88273772
H      7.22015886    -2.31422016    -0.82871246
H      4.27258272    -0.65395341    -2.06977700
H      5.85915891    -1.29007505    -2.43504014
H      3.67167004    -2.98184859    -1.80077478
H      1.16210680     0.82131589    -0.38711385
H     -0.40524208     2.03932803     1.08276396
H      1.25272621     2.56262411     1.38949102
H      1.22521830     1.14270016     3.23673992
H      0.00013378    -0.99724034     1.76036215
H     -1.04415059    -0.50990480    -1.52325426
H     -0.02309522     0.83923987    -3.00253437
H      0.39864407     3.15548021    -3.87316141
H     -0.35775650     3.81783029    -2.41266412
H      2.92972248     2.55141655    -0.19390119
H      5.09623135     2.29628144     0.94107228
H      8.60821525     2.57444373    -1.66868175
H     10.75964026     2.23786991    -0.53368354
H     10.84030230     1.08244737     1.63428885
H      8.76623240     0.25168247     2.65997532
H      6.61753411     0.57690327     1.51891416
H      6.91122101     1.31713440    -2.78608873
H      4.72694787     1.56374058    -3.90377560
H     -1.86040914     1.77562829    -4.35174884
H     -3.56374637     2.95657648    -3.23550476
H     -2.52016314    -0.32954052    -3.25234383
H     -4.77608961     0.03307709    -3.12985933
H     -3.21560504     1.48262127    -0.87760974
H     -5.23070727     0.89357920    -1.40689820
H     -6.72969513     1.95757436    -0.19190368
H     -7.87301601     2.50279026     2.00356031
H     -6.77412005     1.40050355     2.81322186
H     -5.96874153     3.70603284     1.33481818
H     -8.78372606     0.65301151     0.52381391
H     -6.89868723    -1.23116903     1.53863663
H     -7.84458263     0.18877152    -1.71950582
H     -8.63588861    -2.01885320    -0.15275078
H     -6.00102284    -1.89022597    -0.42934994
H     -6.67975655    -2.03576794    -2.69640701
H     -2.52023404    -4.22370708    -2.28877541
H     -1.86758840    -4.92813885    -0.81695891
H     -3.67350009    -2.47274170    -0.89876830
H     -4.28115672    -4.06974763    -0.54983640
H     -3.15387419    -4.15749773     1.57877183
H     -1.97704626    -2.96868918     1.09558230
H     -3.72252878    -1.19912045     1.07652753
H     -5.43601298    -3.16115289     2.19524629
H     -2.24900575    -1.91710979     3.13728023
H     -3.73637612    -2.58205198     3.77221614
H     -3.60633556    -0.38647335     4.69530251
H     -5.22573672     0.02195042     2.42377770
H     -1.80669535     0.48248956     3.15999261
H     -2.99500991     0.68797308     1.90044378
H     -4.29951748     2.24746233     3.36312908
H     -3.12658600     2.05340738     4.63464964
H     -1.33996214     2.99732560     3.13983463
H     -2.50775914     3.17833442     1.85593539
H     -3.84641101     4.76555261     3.30893593
H     -2.64145920     4.60385188     4.57533591
H     -2.20851992     5.35963812     3.04446457

