%chk=t03_mid_chain_diol_C12_conf02.chk
%nprocshared=8
%mem=16GB
#P B3LYP/6-31G(d) SCRF=(PCM,Solvent=Water) Pop=MK NoSymm

t03_mid_chain_diol_C12 conformer 2 (Boltzmann pop=0.125)

0 1
O     -0.30573384    -3.09966086    -0.04557907
C      0.60290442    -2.02487846    -0.26202805
C      2.03222840    -2.43850403     0.15306963
O      2.43633506    -3.60881355    -0.54329431
C      3.00362481    -1.24763232    -0.06628584
C      4.45057375    -1.63181539     0.14860275
C      5.06095484    -1.48714666     1.41183832
O      4.38657084    -0.94073542     2.48201794
C      6.37784259    -1.88813575     1.58582580
C      7.11813806    -2.41728992     0.54131857
O      8.43061914    -2.78103701     0.77388927
C      6.50126885    -2.55887966    -0.70151089
C      5.18319092    -2.18772892    -0.89936886
C      4.56651943    -2.39706164    -2.25442976
O      4.19740024    -1.18855340    -2.89966061
O      2.55463458    -0.10753777     0.70264895
C      1.25765509     0.35001339     0.29320529
C      0.88003854     1.64590364     0.99793368
O      0.69453887     1.48394876     2.37947205
C      0.19410792    -0.74906590     0.51868303
O     -1.14486020    -0.31402004     0.28411344
C     -1.37165304     0.03797399    -1.06942402
O     -0.58816780     1.13157434    -1.55842233
C     -0.63740858     1.25858797    -2.98792889
C      0.22515327     2.44756367    -3.41199254
O      1.57109599     2.26115687    -3.02432390
C      1.90681051     3.03199846    -1.94034982
O      1.20577753     3.90230619    -1.45883921
C      3.22460408     2.72153922    -1.33024978
C      3.72224842     3.47676269    -0.27926320
C      4.89417205     3.11571488     0.34650481
C      5.60609428     1.98999266    -0.06564715
C      6.82754718     1.55124897     0.64253992
C      7.94587791     1.11455518    -0.06417370
C      9.07067034     0.67537671     0.59961260
C      9.09911621     0.65846231     1.97906855
C      8.00048900     1.08737160     2.69541531
C      6.87506867     1.53000866     2.03500543
C      5.11363592     1.25700348    -1.14188705
C      3.93996467     1.61590476    -1.75894980
C     -2.09813419     1.40588146    -3.50971095
O     -2.63743503     2.66982241    -3.17121299
C     -2.99467868     0.27770477    -2.94280320
O     -4.33301582     0.41953916    -3.37993706
C     -2.86206080     0.30506383    -1.40752200
O     -3.76396981    -0.58700220    -0.77927319
C     -5.05904210    -0.00541017    -0.61658896
O     -5.23028461     0.73143795     0.60474930
C     -6.50851975     1.37890752     0.66920235
C     -6.60224537     2.32667975     1.86564997
O     -5.65075477     3.36670636     1.80565586
C     -7.63098673     0.31027669     0.68015890
O     -7.56351285    -0.52133675     1.81926806
C     -7.56133377    -0.54642629    -0.60433992
O     -8.50127771    -1.60220186    -0.53770140
C     -6.13559617    -1.10790455    -0.79915592
O     -6.01705447    -1.69907913    -2.08651075
C     -1.14741378    -3.27946349    -1.10859597
O     -1.04697395    -2.73447468    -2.18768634
C     -2.30562291    -4.20600386    -0.84492893
C     -3.38050633    -3.48608803    -0.03677838
C     -2.89298869    -3.08127624     1.35744861
C     -3.62740256    -1.86490163     1.92814412
O     -5.02535303    -2.09547223     2.06129479
C     -2.98959755    -1.38117914     3.23707239
C     -3.31468861     0.08297970     3.55420829
O     -4.70287150     0.34230937     3.43316667
C     -2.50523757     1.06344750     2.69473301
C     -2.79987314     2.51578050     3.05079220
C     -1.98365153     3.52657361     2.23991156
C     -2.30234058     3.50281728     0.75363897
H      0.62145263    -1.81482515    -1.33849123
H      2.03195798    -2.68091033     1.22525408
H      1.75096119    -4.29481902    -0.45764420
H      2.91614872    -0.92704569    -1.11259976
H      3.54913045    -0.58259228     2.12692200
H      6.84094131    -1.77707115     2.54865943
H      8.81181300    -3.22037326    -0.00750365
H      7.06221366    -2.97051507    -1.51979092
H      5.26961209    -2.93983926    -2.89728416
H      3.67456416    -3.02662962    -2.15646845
H      3.91704101    -1.35040534    -3.81960793
H      1.32825852     0.54083515    -0.78601816
H     -0.06187326     2.01402597     0.58376414
H      1.63399992     2.42061042     0.82803386
H      1.52435216     1.19179610     2.80009633
H      0.21463189    -1.00247172     1.58745582
H     -1.05885080    -0.83208474    -1.65728617
H     -0.19127654     0.33725369    -3.39194061
H      0.19849898     2.59363157    -4.49766594
H     -0.16030499     3.35803197    -2.93808350
H      3.16534083     4.33825671     0.04953312
H      5.26952114     3.70105795     1.16853949
H      7.92426956     1.12829963    -1.14059020
H      9.92988837     0.34219541     0.04050690
H      9.97616269     0.30400607     2.49593421
H      8.01953055     1.06936054     3.77306041
H      6.00761185     1.83794930     2.59365170
H      5.63300586     0.36881557    -1.45810855
H      3.54113662     1.01620538    -2.55898737
H     -2.09285978     1.34733442    -4.61009477
H     -3.57352184     2.70755812    -3.44005041
H     -2.63139687    -0.69769418    -3.30327033
H     -4.87446249    -0.32687717    -3.03026211
H     -3.11017725     1.31277069    -1.05444173
H     -5.18424377     0.73088068    -1.41935670
H     -6.59182801     1.97432618    -0.25140611
H     -7.60719318     2.75655976     1.95312879
H     -6.42532935     1.77175804     2.79222200
H     -5.86299926     3.98209501     1.07644316
H     -8.61349216     0.80392754     0.73739705
H     -6.68560632    -0.96794954     1.86830173
H     -7.82211686     0.05572658    -1.48649316
H     -8.54392576    -1.93049162     0.38196494
H     -5.93975426    -1.89238868    -0.05717190
H     -6.76410842    -2.30183243    -2.24364613
H     -2.69998481    -4.55881894    -1.80293609
H     -1.94911652    -5.08686147    -0.30398594
H     -3.66939971    -2.58586096    -0.58903403
H     -4.29403230    -4.08731679     0.04056568
H     -2.96658675    -3.92301631     2.05239482
H     -1.82659399    -2.83993469     1.30444316
H     -3.55107374    -1.05373123     1.18812256
H     -5.17458496    -2.79803755     2.72157253
H     -1.90306191    -1.50620341     3.19369392
H     -3.33792557    -2.02622337     4.04766036
H     -3.07707670     0.28153996     4.61312926
H     -4.90965868     0.38212151     2.47469469
H     -1.43423017     0.86094413     2.79889424
H     -2.73648827     0.88641961     1.64096059
H     -3.86927253     2.70975842     2.90836661
H     -2.62168649     2.66321686     4.12305960
H     -2.15380066     4.53751060     2.63376710
H     -0.91520552     3.33318811     2.39908529
H     -2.07190886     2.53446134     0.31263987
H     -3.36239493     3.68680701     0.57796658
H     -1.73603509     4.25279322     0.19730501

