%chk=t09_C12_omega_CF3_conf02.chk
%nprocshared=8
%mem=16GB
#P B3LYP/6-31G(d) SCRF=(PCM,Solvent=Water) Pop=MK NoSymm

t09_C12_omega_CF3 conformer 2 (Boltzmann pop=0.095)

0 1
O     -2.43836427     0.78493208    -1.59468270
C     -1.25220354     0.10678974    -1.20930283
C     -0.07683930     1.08208096    -1.02409744
O     -0.33048928     2.08704983    -0.05114373
C      1.16167638     0.21532547    -0.70068733
C      2.24834062     0.93306633     0.04825263
C      3.36013259     1.46330998    -0.63485987
O      3.52033093     1.33941753    -1.99866990
C      4.34222645     2.13177122     0.08151142
C      4.26481450     2.27227008     1.46073969
O      5.29296035     2.89788254     2.14414356
C      3.14240923     1.76167334     2.11430524
C      2.13655145     1.10387785     1.42800984
C      0.89546799     0.70586692     2.18508955
O      0.35156094    -0.56382626     1.88043609
O      1.54891249    -0.46181065    -1.90476601
C      0.58667184    -1.45247087    -2.31767296
C      0.88228943    -1.80220083    -3.77508168
O      0.87317386    -0.65188021    -4.59296625
C     -0.91933645    -1.03333252    -2.21448399
O     -1.77120886    -2.15591918    -2.03793403
C     -1.55181512    -2.84136600    -0.81574578
O     -0.32240252    -3.56773979    -0.74382655
C     -0.04360144    -4.00512891     0.58949512
C      1.32393713    -4.68222301     0.63284189
O      2.36731724    -3.84949334     0.17938798
C      2.72249279    -2.92941497     1.12852198
O      2.14464520    -2.77222716     2.18725712
C      3.90976777    -2.09414111     0.81339628
C      4.61857437    -1.48125349     1.83496488
C      5.74693567    -0.74483345     1.55886662
C      6.19755522    -0.59522924     0.24887022
C      7.42386645     0.17959118    -0.04445521
C      8.39129457    -0.32275856    -0.91199124
C      9.53861969     0.39198782    -1.17921678
C      9.74226989     1.62124570    -0.58645420
C      8.79446006     2.13504105     0.27427696
C      7.64686156     1.42275448     0.54395570
C      5.47066740    -1.20318705    -0.77366200
C      4.34517874    -1.94375121    -0.49395282
C     -1.16252509    -4.95518045     1.10569420
O     -1.12991631    -6.19498193     0.42780689
C     -2.57227628    -4.32418159     0.95585582
O     -3.54580108    -5.31932912     1.21071082
C     -2.74303056    -3.76104846    -0.47011973
O     -4.00341916    -3.13132396    -0.63871417
C     -4.01635878    -1.78145153    -0.20027373
O     -3.45104426    -1.57875690     1.10460389
C     -3.44519921    -0.20928346     1.52728253
C     -2.73081213    -0.09799493     2.87372792
O     -3.38723539    -0.83983686     3.86347635
C     -4.88702115     0.36337537     1.56513030
O     -5.71424350    -0.27210945     2.51941230
C     -5.53346304     0.22990157     0.17136001
O     -6.87990248     0.65316011     0.23948740
C     -5.46373630    -1.24075246    -0.27943027
O     -5.99731979    -1.37380895    -1.58561850
C     -2.32345811     1.34026320    -2.83968233
O     -1.34448515     1.29016827    -3.55711541
C     -3.54055792     2.09018828    -3.30837708
C     -3.62580047     3.46932257    -2.66123130
C     -2.42770436     4.35240195    -3.01056638
C     -2.50092836     5.76506923    -2.42338174
C     -2.59340906     5.80975812    -0.89479630
C     -1.43479417     5.09977979    -0.19456535
C     -1.43741250     5.25467673     1.32749816
C     -2.66993147     4.68664179     2.02092145
C     -2.76013354     3.14648417     1.94829436
F     -3.74429889     2.75764639     2.78049500
F     -3.03666627     2.76603605     0.68639312
F     -1.58748343     2.62168997     2.34766834
H     -1.44716534    -0.32142927    -0.22337980
H      0.10242412     1.60320120    -1.97488726
H     -1.28661125     2.16111251     0.15442410
H      0.82572025    -0.59982807    -0.04783646
H      2.81291267     0.76062711    -2.34305696
H      5.17871170     2.53445144    -0.46221953
H      5.06068160     3.03707212     3.07820061
H      3.05340234     1.89312506     3.17687098
H      1.07149250     0.75053316     3.26650542
H      0.10679422     1.43721079     1.97334240
H      1.00745140    -1.27532045     2.05057960
H      0.75714004    -2.31426797    -1.66102795
H      1.87686158    -2.25170442    -3.87265522
H      0.15067262    -2.52133712    -4.16392609
H      0.18580748    -0.00481063    -4.30265151
H     -1.23440223    -0.66037279    -3.19465130
H     -1.49558636    -2.09727886    -0.01524406
H     -0.00935421    -3.09834701     1.21024635
H      1.57047625    -5.02449167     1.64510142
H      1.30525208    -5.55891615    -0.02490068
H      4.27732422    -1.60667786     2.84903444
H      6.30379781    -0.28822383     2.35936452
H      8.23896462    -1.28833834    -1.36367257
H     10.27944386    -0.01097027    -1.85073733
H     10.63991147     2.17994073    -0.79669035
H      8.94894265     3.09819993     0.73351585
H      6.89695486     1.84114086     1.19461991
H      5.79259329    -1.07473412    -1.79321723
H      3.78776447    -2.41880700    -1.28389779
H     -0.97777025    -5.17790338     2.16905500
H     -1.94571483    -6.69462962     0.62887319
H     -2.71421119    -3.51617813     1.68930483
H     -4.43438664    -4.97939092     1.01201651
H     -2.73459026    -4.60415162    -1.17439849
H     -3.40325014    -1.22295632    -0.92057106
H     -2.88969742     0.36206670     0.77255231
H     -2.66931306     0.94459893     3.20773142
H     -1.70930547    -0.49145573     2.80563689
H     -4.34400649    -0.80670840     3.66579639
H     -4.85047514     1.42757730     1.84596019
H     -6.63874454    -0.00391261     2.36482389
H     -5.00357339     0.86061651    -0.55824677
H     -7.34273544     0.42997141    -0.58598747
H     -6.09237692    -1.83414589     0.39827841
H     -5.82003581    -2.26515416    -1.93146883
H     -4.43071532     1.49342856    -3.08484993
H     -3.49500637     2.18292637    -4.39744929
H     -4.55369112     3.97374777    -2.95755084
H     -3.68878987     3.34553218    -1.57351361
H     -2.33350925     4.40764702    -4.10238105
H     -1.50812019     3.85676472    -2.67920150
H     -3.36109181     6.28927293    -2.85835529
H     -1.62216225     6.33880063    -2.74393280
H     -3.54229345     5.36640132    -0.57356340
H     -2.63568532     6.85183246    -0.55389592
H     -1.46290261     4.03715797    -0.44811902
H     -0.48600213     5.46763374    -0.60514405
H     -0.54816292     4.76769862     1.74800532
H     -1.33412639     6.31889303     1.57408248
H     -3.58637777     5.10534973     1.60061711
H     -2.67161037     4.95745769     3.08084380

