%chk=t09_C12_omega_CF3_conf04.chk
%nprocshared=8
%mem=16GB
#P B3LYP/6-31G(d) SCRF=(PCM,Solvent=Water) Pop=MK NoSymm

t09_C12_omega_CF3 conformer 4 (Boltzmann pop=0.080)

0 1
O     -2.32578185     0.70734563    -1.48737447
C     -1.04782142     0.14548876    -1.22209942
C      0.09829121     1.17322561    -1.17205118
O     -0.18353892     2.33119675    -0.40582740
C      1.34586408     0.37567036    -0.71978669
C      2.42318322     1.17907176    -0.05488866
C      3.48818894     1.69017966    -0.82099820
O      3.60164820     1.43744920    -2.17227866
C      4.46364864     2.45801251    -0.20278648
C      4.42421232     2.71190546     1.16178939
O      5.44230189     3.43950161     1.75315160
C      3.35567218     2.20152405     1.89997157
C      2.35891361     1.43984078     1.31513219
C      1.19698731     1.03245341     2.19001070
O      0.48945270    -0.14602124     1.84388651
O      1.74405538    -0.48931627    -1.79859704
C      0.77375403    -1.53112662    -1.99196968
C      1.16198132    -2.42339094    -3.16642729
O      1.08324040    -1.70605335    -4.37636047
C     -0.67541678    -1.00002193    -2.20095980
O     -1.63844939    -2.04482644    -2.15209414
C     -1.56898338    -2.78583878    -0.94181796
O     -0.37354850    -3.55530828    -0.78692696
C     -0.20642132    -4.01342023     0.55528751
C      1.15971264    -4.68029839     0.70112960
O      2.22568484    -3.86712138     0.25888914
C      2.51910366    -2.87390963     1.15509846
O      1.87305913    -2.63484986     2.15720674
C      3.72793055    -2.06281136     0.85518408
C      4.34003475    -1.32280642     1.85538131
C      5.49376605    -0.61790523     1.59932335
C      6.07068370    -0.63018511     0.33079766
C      7.34272141     0.07897225     0.06581063
C      8.36364266    -0.54087594    -0.65189700
C      9.55336033     0.11085257    -0.89437923
C      9.74806063     1.39411740    -0.42629339
C      8.74907520     2.02390341     0.28661311
C      7.56009526     1.37328883     0.53199571
C      5.43753370    -1.36019145    -0.67369298
C      4.28708715    -2.06811867    -0.41286389
C     -1.36648880    -4.97689394     0.93419848
O     -1.27118300    -6.18951773     0.21475499
C     -2.75643861    -4.33229423     0.68005273
O     -3.74753918    -5.33691880     0.78943209
C     -2.81162713    -3.67821328    -0.72058723
O     -4.03074783    -2.97637563    -0.90169994
C     -3.99442572    -1.66898264    -0.35053214
O     -3.40716734    -1.59236207     0.95853646
C     -3.33093620    -0.25870067     1.47163726
C     -2.57239402    -0.25974207     2.79733736
O     -3.20061094    -1.08179248     3.74029735
C     -4.75048206     0.35227861     1.60394921
O     -5.56204922    -0.32790171     2.54013530
C     -5.44697851     0.35079472     0.22840362
O     -6.78219720     0.78829294     0.38335644
C     -5.42176864    -1.07037153    -0.36614234
O     -5.95502225    -1.05116741    -1.67920429
C     -2.38795307     1.30451006    -2.71193455
O     -1.46860616     1.41240849    -3.49409676
C     -3.72592816     1.89663850    -3.06722928
C     -3.92466350     3.25161690    -2.39374959
C     -2.87156383     4.27158149    -2.82461763
C     -3.01032295     5.64111130    -2.15305378
C     -2.89877201     5.61257933    -0.62390143
C     -1.64016537     4.90329175    -0.12385064
C     -1.37421978     5.06557603     1.37324790
C     -2.48263067     4.53119896     2.26972398
C     -2.75962347     3.02532271     2.06624795
F     -3.53286517     2.60989259     3.08779557
F     -3.40304358     2.85469552     0.89607035
F     -1.59549614     2.35129603     2.06432387
H     -1.12147618    -0.26782334    -0.20945059
H      0.28209998     1.53694957    -2.19342969
H     -0.68322842     2.11190561     0.40675818
H      1.00439519    -0.33785750     0.03711262
H      2.93728823     0.76257756    -2.41216876
H      5.26540640     2.84474194    -0.80710577
H      5.23808817     3.63972669     2.68283092
H      3.30302781     2.41269608     2.95218024
H      1.52579020     0.93545739     3.23198682
H      0.45996963     1.84256455     2.18484873
H      1.02637404    -0.95404220     2.00760198
H      0.80484607    -2.11813190    -1.06663910
H      2.18311252    -2.79807979    -3.03269478
H      0.47885666    -3.28091748    -3.21621062
H      1.32669188    -2.24849349    -5.14700862
H     -0.73598455    -0.60206717    -3.22488158
H     -1.56125073    -2.06348572    -0.11918046
H     -0.23430151    -3.11944044     1.19641817
H      1.35553604    -4.97733496     1.73819366
H      1.17650501    -5.58452115     0.08175092
H      3.90742684    -1.32897193     2.84186122
H      5.97700705    -0.06818243     2.38897511
H      8.21866214    -1.54772197    -1.00514521
H     10.33429312    -0.38359722    -1.44921999
H     10.67845167     1.90379435    -0.61784707
H      8.89510087     3.02890089     0.64911414
H      6.77708514     1.88109597     1.06788773
H      5.85970238    -1.36328095    -1.66428013
H      3.81153520    -2.64745085    -1.18583730
H     -1.27862181    -5.24153836     2.00035840
H     -2.10818335    -6.68604904     0.30640524
H     -2.97003656    -3.57041583     1.44410021
H     -4.61613042    -4.98434050     0.53217214
H     -2.80243523    -4.47407792    -1.47719649
H     -3.36115106    -1.08258073    -1.03065749
H     -2.77778650     0.33903190     0.73410009
H     -2.50288590     0.75310140     3.21031102
H     -1.55054083    -0.63472366     2.66859973
H     -4.16409834    -1.00836705     3.59092999
H     -4.66812247     1.38992494     1.96329688
H     -6.48393263    -0.02728219     2.43621397
H     -4.93133096     1.03925276    -0.45589438
H     -7.27758489     0.65641345    -0.44309087
H     -6.07165755    -1.70748244     0.24860116
H     -5.83430444    -1.91884535    -2.10109389
H     -4.51368343     1.19125107    -2.78465925
H     -3.78213383     2.00131428    -4.15465573
H     -4.92719424     3.64352399    -2.60401560
H     -3.88065372     3.11668055    -1.30713385
H     -2.91058170     4.38386931    -3.91535705
H     -1.87524467     3.86012838    -2.62528518
H     -3.96729417     6.09123407    -2.44474280
H     -2.24210058     6.31614653    -2.55148340
H     -3.78286329     5.12536522    -0.19645354
H     -2.91845190     6.63657044    -0.23046015
H     -1.72376842     3.83644622    -0.35496670
H     -0.77290276     5.25697143    -0.69554120
H     -0.43801546     4.55455612     1.63197048
H     -1.19911014     6.12588323     1.59450398
H     -3.41606920     5.07137055     2.09634060
H     -2.23435975     4.68182143     3.32417446

