%chk=t09_C12_omega_CF3_conf01.chk
%nprocshared=8
%mem=16GB
#P B3LYP/6-31G(d) SCRF=(PCM,Solvent=Water) Pop=MK NoSymm

t09_C12_omega_CF3 conformer 1 (Boltzmann pop=0.131)

0 1
O     -2.38320260     0.71558141    -1.45995249
C     -1.11398191     0.13738940    -1.18754686
C      0.02137401     1.17291364    -1.07412315
O     -0.25283133     2.20349392    -0.13133476
C      1.29475348     0.35577621    -0.73787643
C      2.37863834     1.09885585    -0.00858617
C      3.49258452     1.61148502    -0.69996336
O      3.64480211     1.42633732    -2.05640200
C      4.47016968     2.30393418    -0.00171686
C      4.38911497     2.47546366     1.37405120
O      5.41102490     3.12457439     2.04485966
C      3.27234859     1.96737095     2.03956219
C      2.27049846     1.28696496     1.36938213
C      1.03734502     0.89276938     2.14334987
O      0.44124004    -0.35209343     1.82448324
O      1.66225062    -0.42824057    -1.89042083
C      0.71283332    -1.49041975    -2.06798069
C      1.07583717    -2.36701892    -3.26077376
O      0.99219588    -1.66360592    -4.47237744
C     -0.75145767    -0.98105441    -2.20400118
O     -1.68966784    -2.04706120    -2.13168198
C     -1.57267693    -2.78962681    -0.92568094
O     -0.36227038    -3.54165920    -0.80617310
C     -0.15018897    -3.99894849     0.53063933
C      1.22160037    -4.66221503     0.63070789
O      2.27236744    -3.83189000     0.18422816
C      2.61526587    -2.89722509     1.12447296
O      2.01609288    -2.71538833     2.16711760
C      3.81685318    -2.07657291     0.82331968
C      4.48992538    -1.42775251     1.84719861
C      5.63723464    -0.71391079     1.58891209
C      6.14477884    -0.62386653     0.29434524
C      7.40263407     0.10750750     0.02241262
C      8.38751363    -0.45208493    -0.78881100
C      9.56461047     0.22024529    -1.03623723
C      9.78155362     1.46427546    -0.48019386
C      8.81743557     2.03457986     0.32508199
C      7.64107703     1.36357250     0.57578629
C      5.45113518    -1.26316127    -0.73209081
C      4.30683935    -1.98081121    -0.46967160
C     -1.29297923    -4.96646911     0.95105992
O     -1.21496541    -6.18241828     0.23523032
C     -2.69430595    -4.33152737     0.73867503
O     -3.67566175    -5.33978114     0.89238939
C     -2.79635421    -3.69637083    -0.66710920
O     -4.03105796    -3.01714166    -0.82978903
C     -4.00716266    -1.69609157    -0.31042102
O     -3.41434172    -1.57664102     0.99337106
C     -3.36332792    -0.22881425     1.47436826
C     -2.59895936    -0.17906116     2.79612061
O     -3.22188755    -0.96954867     3.76939644
C     -4.79328579     0.36011024     1.59423597
O     -5.59682772    -0.31809813     2.53918064
C     -5.48570381     0.31780060     0.21780810
O     -6.82551661     0.74562859     0.35790240
C     -5.44352748    -1.11947952    -0.33467490
O     -5.98699779    -1.14820369    -1.64332631
C     -2.41793088     1.33732410    -2.67444071
O     -1.47362997     1.48005943    -3.42074752
C     -3.75221545     1.91002630    -3.06957419
C     -3.95425700     3.29677142    -2.46659055
C     -2.90652704     4.29800774    -2.95397516
C     -3.04790525     5.69834963    -2.35069197
C     -2.96047161     5.73728769    -0.82135460
C     -1.68264394     5.10612544    -0.26744630
C     -1.51345133     5.26619965     1.24484119
C     -2.63188480     4.65058064     2.07704037
C     -2.67028053     3.10836770     2.01129043
F     -3.60214895     2.68782971     2.88715564
F     -2.98667292     2.71270457     0.76363885
F     -1.46349970     2.62856799     2.36001351
H     -1.20498893    -0.30331124    -0.18899284
H      0.16117896     1.66168022    -2.04859972
H     -1.19687380     2.20868257     0.13524792
H      0.97140556    -0.41586025    -0.02816791
H      2.94693516     0.80232276    -2.33829427
H      5.30741712     2.69483999    -0.55281029
H      5.17722030     3.28071340     2.97589306
H      3.18445915     2.11897099     3.09958706
H      1.23605042     0.90968043     3.22154136
H      0.26617523     1.65017647     1.96260394
H      1.04407330    -1.10482341     2.01322461
H      0.78786137    -2.09082544    -1.15371999
H      2.08392874    -2.78446818    -3.15443622
H      0.37515977    -3.20778761    -3.33360211
H      1.57052434    -0.88017911    -4.45480391
H     -0.87034609    -0.56774329    -3.21559619
H     -1.55190119    -2.07291946    -0.09889905
H     -0.15869172    -3.10503940     1.17200653
H      1.44166362    -4.98091191     1.65657907
H      1.22885066    -5.55271164    -0.00842409
H      4.10873277    -1.51171726     2.85131506
H      6.16799863    -0.23452485     2.39380303
H      8.22513916    -1.42916114    -1.21122998
H     10.31836827    -0.22752125    -1.66372032
H     10.70206971     1.99027111    -0.67566113
H      8.98116943     3.00929878     0.75576398
H      6.88314367     1.82543378     1.18542330
H      5.81811804    -1.18309582    -1.74135761
H      3.78120970    -2.48641311    -1.26195733
H     -1.16962060    -5.22494089     2.01522887
H     -2.04429451    -6.68463494     0.35985394
H     -2.88527647    -3.56082823     1.50009445
H     -4.55460918    -4.99393952     0.66292267
H     -2.79146195    -4.50181467    -1.41362816
H     -3.38693462    -1.11666131    -1.00814641
H     -2.82707623     0.36051266     0.71864939
H     -2.52760105     0.84739024     3.17586452
H     -1.57890561    -0.56242814     2.67641611
H     -4.18511048    -0.92188877     3.60811535
H     -4.73047166     1.40497306     1.93528772
H     -6.52314554    -0.03461871     2.42763137
H     -4.97432493     0.99250301    -0.48330304
H     -7.31819228     0.58284143    -0.46454844
H     -6.07898942    -1.74753906     0.30422733
H     -5.84557982    -2.02246870    -2.04460238
H     -4.54235495     1.21930890    -2.75910377
H     -3.79973957     1.96052383    -4.16131842
H     -4.95923066     3.67320883    -2.69326576
H     -3.90649750     3.21547806    -1.37451542
H     -2.95143858     4.35597975    -4.04871085
H     -1.90743535     3.90100043    -2.74053233
H     -4.00047528     6.13518657    -2.67557821
H     -2.27322896     6.35371039    -2.76862633
H     -3.83251513     5.23041030    -0.39360895
H     -3.03279487     6.77405709    -0.46952897
H     -1.67254202     4.04238125    -0.51978675
H     -0.81507768     5.53217208    -0.78692522
H     -0.56094916     4.81944129     1.55759458
H     -1.42789251     6.33485165     1.47890476
H     -3.60714676     5.03211004     1.76856118
H     -2.52008292     4.92275988     3.13069715

