%chk=t09_C12_omega_CF3_conf03.chk
%nprocshared=8
%mem=16GB
#P B3LYP/6-31G(d) SCRF=(PCM,Solvent=Water) Pop=MK NoSymm

t09_C12_omega_CF3 conformer 3 (Boltzmann pop=0.093)

0 1
O     -2.37063853     0.70798923    -1.45069622
C     -1.10056865     0.13419076    -1.17141761
C      0.03155760     1.17065054    -1.04828226
O     -0.25435038     2.20939356    -0.11762687
C      1.29847309     0.35459611    -0.68686940
C      2.38286227     1.11078603     0.02105218
C      3.48593156     1.61393165    -0.69394008
O      3.62424864     1.42458759    -2.05302035
C      4.47413447     2.30981618    -0.01369322
C      4.41130603     2.49580462     1.36135876
O      5.44503656     3.14695223     2.01191661
C      3.30092143     2.00032427     2.04702296
C      2.28926372     1.31503431     1.39731953
C      1.06224788     0.93284231     2.18742081
O      0.45194621    -0.30897034     1.88197333
O      1.68715102    -0.43738312    -1.82148595
C      0.73775582    -1.49101788    -2.03902421
C      1.11636257    -2.31498244    -3.26576169
O      1.00386314    -1.53272914    -4.43247332
C     -0.72414341    -0.97834914    -2.18806825
O     -1.66370740    -2.04425319    -2.13556283
C     -1.56336621    -2.79068931    -0.92997168
O     -0.35631464    -3.54579820    -0.79651308
C     -0.15916751    -3.99787983     0.54444932
C      1.21142950    -4.66039941     0.66400361
O      2.26622807    -3.83728220     0.21387466
C      2.60652870    -2.88996534     1.14252129
O      2.00569535    -2.69341697     2.18146677
C      3.81011822    -2.07608130     0.83105297
C      4.47796775    -1.40307778     1.84264647
C      5.62721665    -0.69630937     1.57329026
C      6.14205389    -0.63777931     0.27969163
C      7.40213169     0.08485396    -0.00407106
C      8.38120107    -0.48764876    -0.81344848
C      9.56000925     0.17686027    -1.07343454
C      9.78490554     1.42564951    -0.53147276
C      8.82702429     2.00848048     0.27214796
C      7.64869594     1.34551420     0.53511585
C      5.45364222    -1.30155591    -0.73451144
C      4.30800433    -2.01250346    -0.46077660
C     -1.30646211    -4.96477017     0.95409466
O     -1.21837819    -6.18330597     0.24371505
C     -2.70560804    -4.33153763     0.72258238
O     -3.68820207    -5.34058540     0.86338908
C     -2.79157739    -3.69495686    -0.68400599
O     -4.02285432    -3.01215924    -0.85653325
C     -4.00125115    -1.69389982    -0.32976887
O     -3.41731850    -1.58046686     0.97882431
C     -3.36870044    -0.23455757     1.46563746
C     -2.61282665    -0.18883039     2.79253337
O     -3.24131960    -0.98443375     3.75809308
C     -4.79920220     0.35444540     1.57861911
O     -5.60951516    -0.32722006     2.51534989
C     -5.48233897     0.31875547     0.19743976
O     -6.82292779     0.74668957     0.33000915
C     -5.43686696    -1.11577955    -0.36176052
O     -5.97040681    -1.13802240    -1.67463442
C     -2.40256597     1.33149145    -2.66437867
O     -1.45461002     1.48458287    -3.40381775
C     -3.74002576     1.88987798    -3.06983238
C     -3.95964101     3.27554640    -2.47098681
C     -2.91784625     4.28555694    -2.95253175
C     -3.07605496     5.68468660    -2.35108537
C     -2.99715409     5.72484016    -0.82136361
C     -1.71604378     5.10647879    -0.26045076
C     -1.55454258     5.27356384     1.25180440
C     -2.66796023     4.64593950     2.08154018
C     -2.68526102     3.10311377     2.02026066
F     -3.61266500     2.67266377     2.89618268
F     -2.99473992     2.69993342     0.77325279
F     -1.47245299     2.64045511     2.37173887
H     -1.19617041    -0.31051111    -0.17499300
H      0.18629025     1.65010972    -2.02532878
H     -1.19758065     2.20569220     0.15145121
H      0.97131704    -0.40758419     0.03065430
H      2.93221732     0.80031581    -2.34512571
H      5.30522287     2.69321576    -0.57912515
H      5.22446854     3.31307105     2.94455692
H      3.22675518     2.16451779     3.10620321
H      1.27377180     0.95325787     3.26308623
H      0.29406967     1.69476650     2.01149645
H      1.05208490    -1.06697574     2.05834751
H      0.80373404    -2.12010874    -1.14362733
H      2.14555753    -2.67946752    -3.17001204
H      0.44612698    -3.17993694    -3.35038277
H      1.25828666    -2.02128437    -5.23471199
H     -0.82343061    -0.55718848    -3.19919950
H     -1.55019044    -2.07517615    -0.10208176
H     -0.17557287    -3.10154084     1.18242665
H      1.42355621    -4.96628138     1.69538945
H      1.22278934    -5.55882086     0.03612995
H      4.09132741    -1.46226194     2.84633949
H      6.15370368    -0.19795164     2.36932310
H      8.21305080    -1.46851261    -1.22482178
H     10.30881573    -0.28075260    -1.69961827
H     10.70699951     1.94516561    -0.73625679
H      8.99725265     2.98683591     0.69218357
H      6.89549955     1.81748810     1.14300637
H      5.82621290    -1.24705683    -1.74334027
H      3.78735677    -2.53844306    -1.24293376
H     -1.19591383    -5.21933958     2.02059742
H     -2.04955450    -6.68488698     0.35840922
H     -2.90742916    -3.56160708     1.48187268
H     -4.56426015    -4.99467923     0.62301625
H     -2.78164599    -4.49951170    -1.43134249
H     -3.37530245    -1.11241805    -1.02047817
H     -2.82770706     0.35754812     0.71557827
H     -2.54618214     0.83626949     3.17673333
H     -1.59078232    -0.56873944     2.67894140
H     -4.20357518    -0.93520540     3.59119853
H     -4.73775297     1.39781177     1.92435639
H     -6.53483360    -0.04243868     2.39861036
H     -4.96572959     0.99641787    -0.49680734
H     -7.31017221     0.58611175    -0.49618454
H     -6.07738814    -1.74647924     0.26940960
H     -5.82793083    -2.01133846    -2.07771742
H     -4.52548249     1.19192704    -2.76371366
H     -3.78050443     1.93793830    -4.16195488
H     -4.96639269     3.64217348    -2.70565093
H     -3.91890596     3.19678912    -1.37846882
H     -2.95604167     4.34226527    -4.04758602
H     -1.91665575     3.89781021    -2.73200524
H     -4.03105025     6.11205245    -2.68133865
H     -2.30553089     6.34732541    -2.76514152
H     -3.86650008     5.20981933    -0.39786875
H     -3.08147971     6.76103447    -0.47052672
H     -1.69540510     4.04184088    -0.50874598
H     -0.85024122     5.53850857    -0.77790069
H     -0.59753779     4.84023767     1.56950184
H     -1.48374507     6.34393522     1.48274995
H     -3.64695879     5.01326693     1.76766343
H     -2.56421624     4.92299397     3.13473126

