%chk=t09_C12_omega_CF3_conf05.chk
%nprocshared=8
%mem=16GB
#P B3LYP/6-31G(d) SCRF=(PCM,Solvent=Water) Pop=MK NoSymm

t09_C12_omega_CF3 conformer 5 (Boltzmann pop=0.059)

0 1
O     -2.19150819     0.70883923    -1.46367512
C     -0.93270078     0.13373131    -1.14033910
C      0.21641854     1.15227938    -1.03151607
O     -0.09233693     2.30785164    -0.27197701
C      1.43840597     0.34615565    -0.52934144
C      2.47615922     1.15333805     0.19348366
C      3.55780222     1.70939624    -0.51921723
O      3.75404473     1.43985456    -1.85832985
C      4.45939262     2.53314746     0.14029150
C      4.33571683     2.78639673     1.49750545
O      5.22675564     3.58887659     2.18209589
C      3.27111761     2.20782498     2.18860627
C      2.33820705     1.40144916     1.56092669
C      1.15825840     0.94440013     2.38657842
O      0.47444251    -0.22961463     1.98131279
O      1.88166729    -0.51129096    -1.59697170
C      0.91448943    -1.54632471    -1.84963492
C      1.34465663    -2.40408151    -3.03548225
O      1.29679151    -1.65082084    -4.22494185
C     -0.52267967    -1.00596192    -2.11014628
O     -1.49063813    -2.04702434    -2.11671689
C     -1.49659029    -2.79432206    -0.90773735
O     -0.32783784    -3.59147758    -0.69313323
C     -0.24878742    -4.07087102     0.65145951
C      1.07883944    -4.79724449     0.86258834
O      2.19156495    -4.05578025     0.41723583
C      2.49722433    -3.02154939     1.26033255
O      1.86931531    -2.72861170     2.25939098
C      3.68773495    -2.22191666     0.87551660
C      4.27948451    -1.34657782     1.77345657
C      5.37278352    -0.59817222     1.40109971
C      5.89853446    -0.69999525     0.11443486
C      7.05277690     0.12356717    -0.31100095
C      8.25993292     0.07964645     0.38191937
C      9.33459856     0.83578462    -0.03290340
C      9.22341286     1.64709880    -1.14408966
C      8.03270221     1.70555589    -1.83909110
C      6.95599089     0.95239142    -1.42660455
C      5.30527658    -1.58987481    -0.77752216
C      4.22116913    -2.34402957    -0.39741501
C     -1.45686323    -4.99938884     0.96406420
O     -1.35733910    -6.21583706     0.25119064
C     -2.81195343    -4.31764420     0.63603279
O     -3.83429760    -5.29522630     0.68517103
C     -2.76906845    -3.66000503    -0.76241294
O     -3.96056472    -2.93350311    -1.01369344
C     -3.93425884    -1.63238238    -0.44787178
O     -3.42274157    -1.58003584     0.89372999
C     -3.35487978    -0.25432153     1.42702729
C     -2.66984772    -0.28296331     2.79202377
O     -3.36057730    -1.10668943     3.68891891
C     -4.77094812     0.37526099     1.48815355
O     -5.64335269    -0.30700408     2.36621857
C     -5.38778679     0.40366478     0.07538276
O     -6.72395350     0.85703076     0.16119506
C     -5.34764840    -1.00780067    -0.54160903
O     -5.79576548    -0.95509225    -1.88544871
C     -2.18879390     1.31780479    -2.68419062
O     -1.23192693     1.42322435    -3.42040530
C     -3.50177343     1.92755031    -3.09826182
C     -3.71672671     3.28143220    -2.42747454
C     -2.63372955     4.29218272    -2.80205758
C     -2.78898515     5.65868772    -2.12777081
C     -2.74819873     5.61884408    -0.59524936
C     -1.52137701     4.89262430    -0.04333775
C     -1.32347436     5.03883508     1.46595937
C     -2.47790602     4.50996474     2.30591424
C     -2.76187202     3.00873718     2.07892681
F     -3.59582806     2.59869202     3.05381063
F     -3.34174625     2.85216958     0.87409563
F     -1.60825343     2.31928154     2.13781301
H     -1.05691949    -0.28519935    -0.13501326
H      0.44907955     1.52095748    -2.04131739
H     -0.62393691     2.08717375     0.51980661
H      1.06212151    -0.37453480     0.20316089
H      3.10752780     0.75526239    -2.12020387
H      5.26898274     2.96203155    -0.42082506
H      5.88920409     3.97391775     1.58289206
H      3.17311527     2.42850963     3.23624973
H      1.46009232     0.81547214     3.43319430
H      0.41029339     1.74460367     2.38883874
H      1.01180415    -1.03881229     2.13888758
H      0.90414260    -2.15851955    -0.94002003
H      2.36418504    -2.77423549    -2.88264498
H      0.67024072    -3.26458587    -3.13226377
H      1.58720943    -2.16139352    -5.00089523
H     -0.53818588    -0.59798769    -3.13191105
H     -1.51777513    -2.07703554    -0.08103103
H     -0.27576980    -3.18174545     1.29932873
H      1.23380982    -5.06503323     1.91438133
H      1.06768306    -5.72279385     0.27520115
H      3.86785938    -1.26348489     2.76526050
H      5.82051987     0.09216598     2.09599543
H      8.34645204    -0.56279855     1.24184032
H     10.26494954     0.79139379     0.50989721
H     10.06584317     2.23673292    -1.46759521
H      7.94320077     2.34484560    -2.70250205
H      6.01152181     1.02420946    -1.93999152
H      5.71194189    -1.68520458    -1.77006580
H      3.77241560    -3.04487441    -1.08033378
H     -1.43505798    -5.26512678     2.03338108
H     -2.21095783    -6.68968262     0.29922815
H     -3.04774159    -3.55277157     1.39042228
H     -4.67592724    -4.92002454     0.37543099
H     -2.73097922    -4.45450127    -1.51961413
H     -3.25179063    -1.05208623    -1.08397834
H     -2.75369969     0.34361526     0.72824304
H     -2.60873443     0.72367005     3.22124925
H     -1.64768221    -0.67158831     2.71408552
H     -4.31351434    -1.01632745     3.48911999
H     -4.69503742     1.40633536     1.86723859
H     -6.55373103     0.00845334     2.21506137
H     -4.82538475     1.09546459    -0.56721590
H     -7.17373897     0.74158062    -0.69331798
H     -6.04591155    -1.64406608     0.01828682
H     -5.66923656    -1.81864363    -2.31404625
H     -4.31023636     1.23020239    -2.85705716
H     -3.50552034     2.03850269    -4.18650323
H     -4.70380809     3.68573571    -2.68255243
H     -3.72535369     3.14064963    -1.34079577
H     -2.62099927     4.41215230    -3.89258738
H     -1.65226799     3.86828732    -2.55975267
H     -3.72680275     6.12092782    -2.45992983
H     -1.99632078     6.32810888    -2.48570067
H     -3.65598440     5.13824655    -0.21230043
H     -2.77529966     6.64031339    -0.19572484
H     -1.60477244     3.82876802    -0.28779754
H     -0.62497596     5.24226718    -0.57088843
H     -0.40597697     4.51490921     1.76300499
H     -1.14695608     6.09515211     1.70455075
H     -3.39646410     5.06167614     2.09362226
H     -2.27726191     4.65039128     3.37187693

