%chk=t12_phosphocholine_like_conf03.chk
%nprocshared=8
%mem=16GB
#P B3LYP/6-31G(d) SCRF=(PCM,Solvent=Water) Pop=MK NoSymm

t12_phosphocholine_like conformer 3 (Boltzmann pop=0.063)

0 1
O     -1.43869868    -1.79869686    -0.82286850
C     -0.70849208    -0.58709192    -0.61759129
C      0.71518972    -0.67858625    -1.21395278
O      0.69119253    -0.98863920    -2.60369537
C      1.50438778     0.62706800    -0.92226909
C      2.87558876     0.61539570    -1.55220651
C      3.11961799     1.44040837    -2.66671743
O      2.11588522     2.27494546    -3.12757361
C      4.37229589     1.40568462    -3.26832522
C      5.38084081     0.57059647    -2.80582309
O      6.60613073     0.56368069    -3.44862147
C      5.11405757    -0.23981224    -1.70278489
C      3.88576772    -0.21478635    -1.07613371
C      3.61914518    -1.14994437     0.05427091
O      4.74718559    -1.55097498     0.80749390
O      1.56077163     0.88250010     0.49843175
C      0.26917305     1.00771243     1.11783374
C      0.43411249     1.29254780     2.61525240
O      1.41852944     0.50786946     3.23565511
C     -0.59778569    -0.25519963     0.88806209
O     -1.87564819    -0.22346010     1.52556912
C     -2.56755348     1.01081089     1.35366394
O     -2.12820641     2.03501376     2.25879939
C     -2.69146844     3.30942964     1.94520487
C     -1.99223054     4.42860296     2.71946430
O     -0.58983980     4.35743284     2.60868129
C     -0.16926263     4.63140687     1.33392265
O     -0.89285052     5.00575369     0.43033885
C      1.27262857     4.36913112     1.08513517
C      1.74038796     4.15840189    -0.20305888
C      3.03120543     3.73543986    -0.41383505
C      3.88857749     3.49332583     0.65615145
C      5.22006019     2.89023957     0.43420623
C      6.08743996     3.39068003    -0.53358084
C      7.31595658     2.80368289    -0.74558176
C      7.69829691     1.70768783     0.00143046
C      6.84538110     1.19187335     0.95583928
C      5.61682727     1.77613990     1.17039093
C      3.42903959     3.75662030     1.94461795
C      2.14310537     4.19765024     2.15258933
C     -4.21180126     3.25334521     2.22083742
O     -4.46457566     2.97557388     3.58341302
C     -4.87883130     2.16947067     1.34099798
O     -6.22846076     2.01810702     1.73560146
C     -4.11207010     0.82344501     1.42965299
O     -4.58188116    -0.05912098     0.42567327
C     -4.22709528     0.34643546    -0.89651037
O     -3.63009008     1.64416634    -1.05446803
C     -3.09562852     1.82952758    -2.36765861
C     -2.24866672     3.09651680    -2.41455743
O     -1.11922503     2.95877051    -1.56528218
C     -4.22343009     1.77753580    -3.43072324
O     -5.13696463     2.84552202    -3.28655254
C     -4.97964078     0.43118164    -3.32050975
O     -6.10399614     0.44896765    -4.17756203
C     -5.42744239     0.19898081    -1.86212444
O     -6.05487958    -1.06386106    -1.73050874
C     -2.12105518    -1.82736497    -2.01104881
O     -2.08071419    -0.96996576    -2.86901559
C     -2.99429296    -3.03341559    -2.23070973
C     -2.22396779    -4.32710054    -1.99976028
C     -1.05093922    -4.48794787    -2.96579730
C     -0.14197020    -5.66814846    -2.62202214
C      0.60826082    -5.46773500    -1.30572614
C      1.61364584    -6.57552026    -1.00667087
C      2.40956793    -6.32545877     0.27104872
C      3.23755791    -5.03969157     0.19492450
O      2.46341247    -3.86109044     0.24247008
P      2.18007833    -3.42745847     1.77954344
O      1.72495451    -1.98011517     1.84812861
O      3.46865723    -3.60314995     2.56785227
O      0.96719486    -4.38734884     2.26876213
C     -0.25976894    -3.71253597     2.09168869
C     -1.45839357    -4.49048277     2.62288106
N     -2.73037643    -3.65145649     2.79526975
C     -3.18079150    -3.06418324     1.47798853
C     -3.82292784    -4.55800206     3.32364203
C     -2.51288666    -2.52524782     3.78592680
H     -1.25500112     0.21852638    -1.11737708
H      1.21913624    -1.51934341    -0.72143885
H     -0.24669364    -0.94530898    -2.88999060
H      0.94487536     1.46645011    -1.35981334
H      2.36136366     2.67949976    -3.97869201
H      4.57961157     2.03085625    -4.11551390
H      7.17106185    -0.15581365    -3.11232899
H      5.87635101    -0.89444173    -1.32215315
H      2.91376042    -0.67531655     0.74456069
H      3.14841676    -2.05246237    -0.34937222
H      4.46445728    -2.21019376     1.47767097
H     -0.22857754     1.85873815     0.63407852
H     -0.51543964     1.12352815     3.13400356
H      0.70503228     2.33755446     2.79056117
H      1.53117149    -0.35091582     2.76303608
H     -0.07785340    -1.09261549     1.36521173
H     -2.31773164     1.35879224     0.34566755
H     -2.51603621     3.45829891     0.87006761
H     -2.31835684     5.41922154     2.38087082
H     -2.23142679     4.34262554     3.78466294
H      1.06679418     4.27827757    -1.03399928
H      3.36915929     3.51836528    -1.41153442
H      5.78833638     4.24777856    -1.11270100
H      7.97726819     3.19792109    -1.50016139
H      8.66255001     1.25432333    -0.16053631
H      7.13357751     0.32307141     1.52559080
H      4.93537622     1.35635361     1.89141584
H      4.08492479     3.58539099     2.78129919
H      1.78097250     4.37434716     3.15176154
H     -4.67410863     4.23198001     2.02081673
H     -3.86438105     2.26686402     3.88314168
H     -4.90841853     2.47955013     0.28808796
H     -6.27793979     2.03543842     2.71185636
H     -4.35208941     0.34166593     2.38433927
H     -3.45699900    -0.37256116    -1.19480837
H     -2.42122817     0.98065089    -2.54190658
H     -2.86363378     3.95479008    -2.11695628
H     -1.88734513     3.28759195    -3.43192858
H     -1.07228697     3.68594984    -0.90063926
H     -3.78095221     1.87173339    -4.43559437
H     -5.93069006     2.65615962    -3.82509398
H     -4.32177651    -0.39431458    -3.63080380
H     -6.66081542    -0.33107527    -4.00924439
H     -6.16852323     0.97049841    -1.61016691
H     -6.31237556    -1.20426310    -0.80177514
H     -3.38125225    -3.00311873    -3.25334883
H     -3.86638850    -2.96539401    -1.57275896
H     -1.85019943    -4.32951811    -0.97081973
H     -2.88948011    -5.19591520    -2.07403947
H     -0.45586391    -3.56730322    -2.96457282
H     -1.43461124    -4.58194405    -3.98895460
H      0.58604266    -5.82660316    -3.42771014
H     -0.73096482    -6.59148362    -2.57679572
H     -0.09768486    -5.39116297    -0.47213032
H      1.12612626    -4.50176785    -1.32971496
H      2.30494295    -6.67413042    -1.85184509
H      1.08887514    -7.53695623    -0.94770171
H      1.72657066    -6.25492818     1.12465672
H      3.06393102    -7.18128709     0.47827346
H      3.98199837    -4.98938337     1.00780366
H      3.80738618    -5.01085344    -0.74851831
H     -0.16831188    -2.75777855     2.62908426
H     -0.36717056    -3.46928880     1.02170421
H     -1.67460846    -5.33826061     1.97057584
H     -1.20030261    -4.91378227     3.59570821
H     -3.37572371    -3.85616855     0.76075581
H     -4.09138822    -2.48646234     1.61570120
H     -2.42188320    -2.39814488     1.07623207
H     -4.74769317    -4.00038566     3.45102708
H     -3.53476247    -4.97573188     4.28529615
H     -4.00486199    -5.37466521     2.62911217
H     -3.45939144    -2.04278522     4.01483565
H     -2.08614588    -2.90852490     4.70948636
H     -1.84743094    -1.77124310     3.37386169

