%chk=t12_phosphocholine_like_conf05.chk
%nprocshared=8
%mem=16GB
#P B3LYP/6-31G(d) SCRF=(PCM,Solvent=Water) Pop=MK NoSymm

t12_phosphocholine_like conformer 5 (Boltzmann pop=0.058)

0 1
O     -1.59526873    -1.79213374    -0.78191522
C     -0.87151066    -0.57537097    -0.59021776
C      0.55577235    -0.68360856    -1.17857116
O      0.53665440    -0.95871226    -2.57583484
C      1.36835633     0.59445984    -0.84260766
C      2.72389906     0.60414396    -1.50205446
C      2.93171520     1.42091530    -2.63057475
O      1.90437700     2.22741047    -3.08799610
C      4.17487542     1.41167168    -3.25466913
C      5.21432975     0.61706374    -2.78918854
O      6.46188775     0.59636984    -3.38716864
C      4.97935051    -0.18942569    -1.67677632
C      3.75790594    -0.20043786    -1.03764712
C      3.53471991    -1.14261634     0.09565723
O      4.68940089    -1.46737874     0.84238927
O      1.44950642     0.76514185     0.58904831
C      0.16582877     0.93011123     1.21557395
C      0.34344757     1.10077060     2.72475030
O      0.75498387    -0.06701458     3.39316406
C     -0.77404180    -0.26020224     0.91970654
O     -2.05827477    -0.14695231     1.52851746
C     -2.68287660     1.11461596     1.31200151
O     -2.21495433     2.14420246     2.19711421
C     -2.72882619     3.42910342     1.84410270
C     -2.00710322     4.53884017     2.61021306
O     -0.60742411     4.40566119     2.53979604
C     -0.14739125     4.59670363     1.26378941
O     -0.83339021     4.95939634     0.32648410
C      1.28661046     4.26901421     1.05735575
C      1.80106464     4.13005508    -0.22208499
C      3.09414702     3.70326046    -0.41002131
C      3.90675340     3.38412373     0.67480743
C      5.25220713     2.80856791     0.46214154
C      5.63831078     1.65150514     1.13477354
C      6.87334956     1.08436041     0.91013498
C      7.74633320     1.66285178     0.01167943
C      7.38057022     2.81013484    -0.66271793
C      6.14436294     3.37799332    -0.44312303
C      3.39534352     3.56083162     1.95872528
C      2.10681804     4.00535139     2.14456430
C     -4.25656565     3.43845717     2.08269992
O     -4.55571203     3.20671702     3.44446577
C     -4.94475196     2.36054826     1.21235686
O     -6.31009880     2.27450130     1.57251817
C     -4.23468488     0.98999158     1.36113733
O     -4.71614859     0.08543698     0.38185402
C     -4.34078203     0.43612698    -0.95034364
O     -3.66484138     1.69104114    -1.12998459
C     -3.13012951     1.83346816    -2.44741004
C     -2.22097772     3.05600365    -2.50442468
O     -1.11265981     2.87879564    -1.63464943
C     -4.26654089     1.83516104    -3.50264771
O     -5.11179517     2.95927753    -3.36783128
C     -5.10355170     0.53938266    -3.36967924
O     -6.23059026     0.61548558    -4.21997091
C     -5.55530494     0.35322252    -1.90589320
O     -6.25898691    -0.86662473    -1.75525936
C     -2.24140886    -1.87044248    -1.98586516
O     -2.23922498    -1.01864417    -2.84999662
C     -3.00015028    -3.14898754    -2.21364437
C     -2.10863323    -4.36539000    -1.98624070
C     -0.90294195    -4.39069366    -2.92559359
C      0.05016413    -5.55966568    -2.66937229
C      0.79305803    -5.45244709    -1.33769161
C      1.79537637    -6.58466722    -1.11925793
C      2.55692083    -6.47491790     0.19956130
C      3.44462824    -5.22967131     0.26208784
O      2.72415737    -4.02021913     0.24469536
P      2.30798011    -3.58447073     1.75030712
O      1.56099324    -2.25881418     1.69764409
O      3.57376392    -3.46939084     2.58332782
O      1.33233648    -4.75827983     2.31212320
C      0.22265033    -4.25088856     3.02008866
C     -0.96439049    -3.92817652     2.11568098
N     -2.22424569    -3.43571757     2.83721786
C     -1.92181535    -2.27892772     3.76445251
C     -3.21771782    -2.97412604     1.78966753
C     -2.84464510    -4.56360430     3.63435508
H     -1.41644675     0.22665897    -1.09652095
H      1.04236254    -1.54500344    -0.70175296
H     -0.40295184    -0.93752411    -2.85981902
H      0.81036368     1.46179945    -1.22424803
H      2.13849043     2.63326127    -3.94218561
H      4.33720802     2.04060891    -4.10813860
H      6.46719296     1.13039318    -4.20119461
H      5.77176769    -0.81845724    -1.31380033
H      2.80499617    -0.70842760     0.78700150
H      3.11177426    -2.07199573    -0.30196126
H      4.45025958    -2.14103662     1.51388957
H     -0.26908926     1.84432925     0.79101576
H     -0.60442862     1.40136356     3.18407255
H      1.08237907     1.87976767     2.93376244
H      1.13474943    -0.73268391     2.77106214
H     -0.32369411    -1.14287690     1.38806940
H     -2.39677854     1.42580596     0.30163029
H     -2.52353497     3.54732441     0.77041491
H     -2.28213736     5.53283779     2.23788170
H     -2.27851843     4.49016189     3.67008912
H      1.16314738     4.32362703    -1.06730242
H      3.47352238     3.55754878    -1.40624963
H      4.94146245     1.18103585     1.80762486
H      7.14946334     0.17836987     1.42506592
H      8.70999684     1.21500085    -0.16919049
H      8.06237365     3.26051860    -1.36579520
H      5.85748335     4.27267488    -0.96925836
H      4.01746317     3.33229395     2.80731956
H      1.70790698     4.13186885     3.13717269
H     -4.67319399     4.42928322     1.84587830
H     -4.00180783     2.47424911     3.77431227
H     -4.93164951     2.64341340     0.15146323
H     -6.38562039     2.31857205     2.54627580
H     -4.51090922     0.55219184     2.32732707
H     -3.62277861    -0.33988325    -1.24036534
H     -2.50276754     0.94851708    -2.61713212
H     -2.79767544     3.94775029    -2.22939028
H     -1.83867534     3.21203940    -3.51986963
H     -1.03897563     3.61500389    -0.98217209
H     -3.82617809     1.88832842    -4.51142539
H     -5.91923760     2.81201053    -3.89913509
H     -4.50017156    -0.32983506    -3.67191649
H     -6.83381163    -0.12517723    -4.03503994
H     -6.24600760     1.17128912    -1.65772545
H     -6.49259247    -0.99533512    -0.81931406
H     -3.38722453    -3.14852364    -3.23671065
H     -3.87352082    -3.16758176    -1.55435712
H     -1.76103788    -4.35554604    -0.94770168
H     -2.68482767    -5.29212638    -2.09656242
H     -0.34998897    -3.44918404    -2.83008588
H     -1.25924987    -4.41111649    -3.96271257
H      0.78587360    -5.62585621    -3.48101064
H     -0.50577765    -6.50364823    -2.70638317
H      0.08083609    -5.43515269    -0.50611776
H      1.31165793    -4.48820703    -1.28760947
H      2.50953296    -6.60167950    -1.95071977
H      1.26803924    -7.54516488    -1.17155311
H      1.84517916    -6.44591866     1.03142290
H      3.16631424    -7.37323903     0.35817097
H      4.08549069    -5.22923870     1.16076918
H      4.12351107    -5.20573757    -0.60657652
H     -0.05203691    -5.01361848     3.76469643
H      0.55670067    -3.36365030     3.57985098
H     -0.66484616    -3.17886624     1.38263686
H     -1.23087668    -4.81557298     1.53927602
H     -1.44660211    -1.46803676     3.22132427
H     -2.84183566    -1.90074687     4.20304214
H     -1.26361159    -2.59155470     4.57055796
H     -4.12772757    -2.61492675     2.26362195
H     -3.47282615    -3.79347671     1.12241375
H     -2.79707605    -2.16304728     1.19969109
H     -3.77633130    -4.23420609     4.08685502
H     -3.05507341    -5.41236405     2.98813524
H     -2.17524163    -4.88626303     4.42727798

