%chk=t12_phosphocholine_like_conf04.chk
%nprocshared=8
%mem=16GB
#P B3LYP/6-31G(d) SCRF=(PCM,Solvent=Water) Pop=MK NoSymm

t12_phosphocholine_like conformer 4 (Boltzmann pop=0.060)

0 1
O     -1.49866463    -1.89680002    -0.47665842
C     -0.83620031    -0.63182688    -0.40079658
C      0.57355672    -0.73925194    -1.02822191
O      0.51312452    -1.07833636    -2.41046182
C      1.40395754     0.54928077    -0.79578839
C      2.76609969     0.45036865    -1.43852531
C      3.03256576     1.20268044    -2.59883874
O      2.06451232     2.05651646    -3.09869910
C      4.27448410     1.07893866    -3.21119994
C      5.24982732     0.22290221    -2.71772300
O      6.46558240     0.12802542    -3.37134198
C      4.95916384    -0.51924862    -1.57386445
C      3.74112048    -0.40651820    -0.93672472
C      3.44764619    -1.27727882     0.23768426
O      4.57511140    -1.73866187     0.95435905
O      1.48447514     0.85580348     0.61317448
C      0.20137881     1.05075792     1.23091834
C      0.37821340     1.40234562     2.71055921
O      1.28302408     0.56494097     3.38328230
C     -0.71047883    -0.19122829     1.07595030
O     -1.98833455    -0.05333087     1.69684781
C     -2.62211728     1.19202523     1.41516258
O     -2.18625804     2.26067201     2.26763385
C     -2.70383329     3.52002832     1.83873346
C     -1.97953830     4.68191459     2.52247584
O     -0.57775608     4.56880566     2.41980550
C     -0.14687699     4.66820245     1.12266643
O     -0.85921297     4.92518867     0.17042313
C      1.29325872     4.36100886     0.92069505
C      1.78107021     4.06750186    -0.34335057
C      3.06350379     3.59898745    -0.50234958
C      3.89123760     3.39007621     0.59750098
C      5.19980188     2.72085759     0.43602416
C      6.10016724     3.12266599    -0.54755454
C      7.29992301     2.46509679    -0.71150964
C      7.62050629     1.39564758     0.10017983
C      6.73478506     0.97804860     1.07253066
C      5.53477449     1.63299343     1.23924779
C      3.41580199     3.74263668     1.85867129
C      2.13949280     4.23180186     2.01351192
C     -4.24646887     3.53646996     2.00670666
O     -4.66640999     3.30010028     3.33974405
C     -4.86564607     2.42377574     1.12707331
O     -6.25414723     2.35030219     1.37284267
C     -4.17264369     1.06929905     1.42484594
O     -4.62264027     0.06962761     0.52873601
C     -4.27252356     0.32854524    -0.83164047
O     -3.52105952     1.52612879    -1.09253968
C     -3.03726407     1.60055279    -2.43558701
C     -2.11182508     2.80502681    -2.57515563
O     -1.02296564     2.70493160    -1.67033057
C     -4.21468052     1.60989261    -3.44628925
O     -4.99374647     2.78394911    -3.33610443
C     -5.11502103     0.37167281    -3.22066157
O     -6.26349785     0.46496188    -4.03997250
C     -5.52698371     0.29019345    -1.73675085
O     -6.31224707    -0.86427661    -1.50297732
C     -2.15242497    -2.11224667    -1.66098453
O     -2.26041570    -1.31741898    -2.57165455
C     -2.72112983    -3.49524115    -1.81585406
C     -1.59148790    -4.50329810    -1.99729843
C     -0.81351299    -4.30022754    -3.30470494
C      0.60274225    -4.88426754    -3.25497290
C      1.58494182    -4.00310609    -2.47332575
C      2.91874612    -4.69645329    -2.17604731
C      2.81780386    -5.70414103    -1.02807930
C      2.84606548    -5.02789903     0.34567822
O      1.97181867    -3.92952334     0.44232182
P      1.86520341    -3.43383528     1.98424192
O      1.45858898    -1.97667083     2.04978244
O      3.20438691    -3.66216153     2.66697853
O      0.66172491    -4.30839676     2.60858876
C     -0.37378722    -4.43659674     1.66417026
C     -1.68600515    -4.88612520     2.30782746
N     -2.42434067    -3.77949046     3.06765745
C     -3.06585519    -2.81077128     2.09937434
C     -3.51564659    -4.41675956     3.90367752
C     -1.48168847    -3.02948810     3.98049347
H     -1.43452165     0.09930127    -0.95183846
H      1.07157245    -1.57671866    -0.52665241
H     -0.43827964    -1.11358331    -2.65131282
H      0.87146515     1.38789976    -1.26689994
H      2.32479668     2.40300414    -3.97125694
H      4.49916470     1.65032285    -4.09129811
H      7.00584026    -0.59234554    -2.99841408
H      5.69560241    -1.18841448    -1.16844769
H      2.80792061    -0.72839498     0.93696985
H      2.89515310    -2.15527736    -0.11151639
H      4.27206941    -2.36978612     1.64139096
H     -0.27001480     1.89303482     0.70800427
H     -0.58714211     1.34607898     3.22605363
H      0.74291314     2.42611950     2.82947935
H      1.35578569    -0.30857286     2.92926640
H     -0.23921670    -1.01921228     1.61851570
H     -2.31570479     1.46632047     0.39970360
H     -2.47337165     3.56953710     0.76422332
H     -2.28077112     5.64895885     2.10291558
H     -2.21028066     4.69147486     3.59155006
H      1.12753137     4.15950961    -1.19359405
H      3.41586315     3.31813748    -1.47886300
H      5.84886524     3.95819233    -1.17860689
H      7.98633131     2.78269023    -1.47963197
H      8.56188055     0.88607769    -0.02546032
H      6.97460529     0.13004635     1.69367101
H      4.82712276     1.28864104     1.97480905
H      4.04987375     3.60116692     2.71741392
H      1.76454515     4.47991316     2.99252472
H     -4.65071622     4.51443471     1.70281085
H     -4.24372625     3.91521079     3.96694040
H     -4.75523484     2.65658253     0.05969375
H     -6.39989601     2.37006539     2.33918065
H     -4.47433693     0.73870272     2.42669721
H     -3.62206331    -0.51037076    -1.10916895
H     -2.44038936     0.69298003    -2.59647441
H     -2.68671119     3.72097025    -2.38989164
H     -1.70864671     2.87285581    -3.59236450
H     -0.99256463     3.47683947    -1.05611110
H     -3.81317133     1.59160185    -4.47237628
H     -5.82727310     2.65657548    -3.83075102
H     -4.56880085    -0.54457589    -3.49162349
H     -6.89793010    -0.23170750    -3.79734123
H     -6.14821079     1.16703407    -1.50502406
H     -6.48876575    -0.95311926    -0.55013398
H     -3.39528779    -3.51296885    -2.67678698
H     -3.32806542    -3.73295643    -0.93716358
H     -0.90452987    -4.40223047    -1.15046969
H     -1.96903246    -5.53195334    -1.94145599
H     -0.74657820    -3.23002843    -3.52843723
H     -1.38543019    -4.72810565    -4.13742671
H      0.99161973    -5.03633685    -4.26996202
H      0.55916897    -5.88627488    -2.81444598
H      1.13079201    -3.68944090    -1.52803769
H      1.74991001    -3.07099046    -3.02905261
H      3.68757589    -3.95503630    -1.92536510
H      3.27356291    -5.18726419    -3.09068332
H      1.89121067    -6.27838492    -1.12932059
H      3.62807794    -6.44164429    -1.08906308
H      2.59216744    -5.73972951     1.14954261
H      3.85687543    -4.64548908     0.56519447
H     -0.49172614    -3.46617012     1.15537548
H     -0.02856117    -5.16073584     0.90654723
H     -2.37065825    -5.29125566     1.55902245
H     -1.47015432    -5.69630875     3.00702888
H     -3.76049729    -3.33321448     1.44803877
H     -3.61089145    -2.03977153     2.63837589
H     -2.31524540    -2.32183645     1.48623531
H     -4.07553227    -3.65348010     4.43876077
H     -3.08519339    -5.10194449     4.63002479
H     -4.20348465    -4.96981185     3.26847531
H     -2.02129474    -2.28294043     4.55717260
H     -0.99131741    -3.72059267     4.66172290
H     -0.71780252    -2.52737402     3.39332189

