%chk=t12_phosphocholine_like_conf02.chk
%nprocshared=8
%mem=16GB
#P B3LYP/6-31G(d) SCRF=(PCM,Solvent=Water) Pop=MK NoSymm

t12_phosphocholine_like conformer 2 (Boltzmann pop=0.084)

0 1
O     -1.46365731    -1.78088897    -0.82701655
C     -0.72263629    -0.57823674    -0.61234399
C      0.70648432    -0.68001241    -1.19073398
O      0.69939161    -1.00695176    -2.57666578
C      1.48536462     0.63156067    -0.90269798
C      2.85489048     0.63079078    -1.53475417
C      3.08479078     1.44283909    -2.66175718
O      2.06542372     2.25362011    -3.13052463
C      4.33678844     1.42223535    -3.26690526
C      5.36294177     0.62072580    -2.78278103
O      6.61891082     0.58793539    -3.36256493
C      5.10664141    -0.18011629    -1.67037964
C      3.87638133    -0.17837902    -1.04876190
C      3.61631784    -1.11702748     0.08003703
O      4.74565229    -1.51869059     0.83052683
O      1.53783934     0.88789194     0.51808516
C      0.24454292     1.01051549     1.13562486
C      0.41012820     1.28069633     2.63615182
O      1.38705781     0.48304383     3.25187769
C     -0.63137979    -0.24502298     0.89337251
O     -1.92302052    -0.20202820     1.50339764
C     -2.59497071     1.04432536     1.33610745
O     -2.11281379     2.06184956     2.22420837
C     -2.66081287     3.34809525     1.93436922
C     -1.94050853     4.43315986     2.73583373
O     -0.53937351     4.34831398     2.61726829
C     -0.11724030     4.62976863     1.34413790
O     -0.83577297     5.02072633     0.44334968
C      1.32261469     4.35482955     1.09603025
C      1.79446114     4.15889964    -0.19290707
C      3.08556708     3.73561060    -0.40389805
C      3.93754003     3.47599147     0.66688854
C      5.26923465     2.87230294     0.44409365
C      5.63994834     1.71953872     1.13306372
C      6.86129713     1.12483539     0.90522917
C      7.73526129     1.67193539    -0.01195216
C      7.38395113     2.81426749    -0.70262717
C      6.16081277     3.40905155    -0.48106137
C      3.47211142     3.71948289     1.95688772
C      2.18707849     4.16263007     2.16483705
C     -4.18457404     3.34385193     2.21065709
O     -4.45627676     3.15649755     3.58466148
C     -4.89007949     2.24436206     1.38071154
O     -6.21475131     2.09974523     1.85974318
C     -4.13988982     0.88958071     1.46170281
O     -4.67689255     0.01492566     0.48128009
C     -4.25589921     0.34069762    -0.84331047
O     -3.73891954     1.66626314    -1.03886423
C     -3.14804475     1.82182891    -2.32971918
C     -2.31283824     3.09776341    -2.38051901
O     -1.17871375     2.96099996    -1.53515321
C     -4.22731361     1.69107178    -3.43278394
O     -5.20913639     2.70225668    -3.34033685
C     -4.89980947     0.30064579    -3.31936606
O     -5.99585912     0.23554956    -4.21051954
C     -5.37939729     0.04976553    -1.87146709
O     -5.86744415    -1.27508701    -1.74613909
C     -2.12669064    -1.80048813    -2.02563458
O     -2.06627500    -0.93945510    -2.87852173
C     -2.99765242    -3.00450472    -2.26451303
C     -2.22852566    -4.29968760    -2.03779913
C     -1.04962985    -4.45252316    -2.99801223
C     -0.14157100    -5.63474516    -2.65892288
C      0.60643381    -5.44205858    -1.34018929
C      1.61244833    -6.55107739    -1.04752129
C      2.40612591    -6.31084594     0.23351894
C      3.23537749    -5.02519930     0.16919207
O      2.46246368    -3.84600361     0.22055634
P      2.16897749    -3.42414664     1.75899105
O      1.70271559    -1.98065239     1.83387123
O      3.45510224    -3.59612884     2.55235671
O      0.95911780    -4.39477059     2.23637270
C     -0.26985249    -3.72076107     2.06990691
C     -1.46627127    -4.50323043     2.59916788
N     -2.73783998    -3.66517568     2.78057385
C     -3.19221674    -3.07038060     1.46791521
C     -3.82865176    -4.57452969     3.30768196
C     -2.51706678    -2.54406051     3.77655839
H     -1.25202953     0.23438959    -1.11796163
H      1.20579091    -1.51304081    -0.68054383
H     -0.23209975    -0.94354080    -2.87899752
H      0.91869373     1.46614432    -1.34019244
H      2.30448502     2.65609118    -3.98439814
H      4.51609244     2.04651154    -4.12036176
H      6.63863047     1.11253913    -4.18255231
H      5.88795022    -0.81614058    -1.29577919
H      2.91053149    -0.64686179     0.77279602
H      3.14651829    -2.01898042    -0.32614395
H      4.46458667    -2.18910111     1.49015588
H     -0.24893254     1.86850428     0.65995709
H     -0.54159857     1.11666082     3.15326531
H      0.69057165     2.32203827     2.81932949
H      1.50352388    -0.36741461     2.76518148
H     -0.12737816    -1.08662373     1.38005711
H     -2.36379926     1.38265585     0.32002060
H     -2.48135543     3.51612391     0.86259374
H     -2.25728180     5.43840117     2.43393211
H     -2.17733653     4.30719718     3.79840009
H      1.12317963     4.29201568    -1.02388241
H      3.42935629     3.53511222    -1.40326296
H      4.94117202     1.27592184     1.82248534
H      7.12457613     0.22085536     1.43054906
H      8.68780023     1.20214790    -0.19616955
H      8.06680644     3.23930198    -1.42027819
H      5.88349042     4.29878737    -1.02052715
H      4.12302059     3.53174788     2.79393268
H      1.82148500     4.32714309     3.16476887
H     -4.60073070     4.32849504     1.94222166
H     -5.40053538     2.92790561     3.69642930
H     -4.95771406     2.54763253     0.32664746
H     -6.64808611     1.34158600     1.42863988
H     -4.35558339     0.43130004     2.43456716
H     -3.42135976    -0.34223110    -1.03662972
H     -2.45252355     0.98043485    -2.44458238
H     -2.93206424     3.95148895    -2.07960464
H     -1.95505592     3.29057779    -3.39874303
H     -1.09753372     3.70622557    -0.89429439
H     -3.75348508     1.79590954    -4.42210524
H     -5.97291856     2.45149066    -3.89708830
H     -4.18345517    -0.48467919    -3.60146618
H     -6.50297777    -0.58050144    -4.05530153
H     -6.21376295     0.73579851    -1.67324652
H     -6.15484997    -1.43591196    -0.82863562
H     -3.37487711    -2.96622441    -3.29037804
H     -3.87564628    -2.94247528    -1.61413249
H     -1.86135875    -4.30980720    -1.00649234
H     -2.89326903    -5.16807403    -2.12293878
H     -0.45505074    -3.53169047    -2.98609652
H     -1.42745265    -4.53854578    -4.02404184
H      0.58805992    -5.78865373    -3.46404062
H     -0.73073567    -6.55826953    -2.62028032
H     -0.10099643    -5.37147186    -0.50732891
H      1.12357993    -4.47555300    -1.35719432
H      2.30530316    -6.64262564    -1.89220211
H      1.08837527    -7.51337401    -0.99706495
H      1.72154297    -6.24661144     1.08631126
H      3.05959548    -7.16861102     0.43552523
H      3.97606376    -4.98059671     0.98585622
H      3.80957434    -4.99107044    -0.77144122
H     -0.17769551    -2.77056572     2.61507923
H     -0.38148266    -3.46831169     1.00252063
H     -1.68400916    -5.34653824     1.94161151
H     -1.20533995    -4.93302454     3.56836619
H     -3.39196318    -3.85789204     0.74699105
H     -4.10032746    -2.49035337     1.61230427
H     -2.43287359    -2.40476260     1.06667098
H     -4.75285696    -4.01753862     3.44164955
H     -3.53712706    -4.99781573     4.26588088
H     -4.01324906    -5.38725953     2.60925393
H     -3.46202425    -2.06039227     4.00936443
H     -2.08959187    -2.93249605     4.69759029
H     -1.85099632    -1.78905228     3.36749958

