%chk=t12_phosphocholine_like_conf01.chk
%nprocshared=8
%mem=16GB
#P B3LYP/6-31G(d) SCRF=(PCM,Solvent=Water) Pop=MK NoSymm

t12_phosphocholine_like conformer 1 (Boltzmann pop=0.137)

0 1
O     -1.45543197    -1.81951798    -0.81029330
C     -0.73334611    -0.60281350    -0.60831762
C      0.69009847    -0.68456810    -1.20622303
O      0.66615860    -0.99965005    -2.59476490
C      1.46675012     0.62933565    -0.91930011
C      2.83584984     0.63257153    -1.55281638
C      3.06516696     1.44920024    -2.67668526
O      2.04465167     2.25753581    -3.14648316
C      4.31911966     1.43712580    -3.27813910
C      5.34829501     0.64016073    -2.79322985
O      6.60619951     0.61595142    -3.36917495
C      5.09309668    -0.16455141    -1.68354055
C      3.86109213    -0.17131580    -1.06544507
C      3.60747568    -1.11088976     0.06422472
O      4.74029265    -1.49937737     0.81679206
O      1.52665591     0.88534144     0.50123539
C      0.23714860     0.99905314     1.12621271
C      0.40537366     1.28041531     2.62429919
O      1.40353150     0.50749410     3.23715699
C     -0.62511445    -0.26750424     0.89677743
O     -1.90590063    -0.23350641     1.52829137
C     -2.58920625     1.00446696     1.35044037
O     -2.14367799     2.02879455     2.25196236
C     -2.68602078     3.30797576     1.92256304
C     -1.97506452     4.42355874     2.69146350
O     -0.57242461     4.33256007     2.59109086
C     -0.13665243     4.60228763     1.32048105
O     -0.84911716     4.97836336     0.40882884
C      1.30696094     4.33560988     1.08540748
C      1.79101432     4.15248802    -0.20103751
C      3.08494193     3.73494130    -0.40515444
C      3.92877694     3.46937204     0.67043633
C      5.26362149     2.87122804     0.45187391
C      5.63456286     1.71603276     1.13646419
C      6.85764382     1.12467435     0.90925447
C      7.73308934     1.67739056    -0.00310673
C      7.38171634     2.82234446    -0.68928001
C      6.15697733     3.41393437    -0.46811797
C      3.45217556     3.70210409     1.95850054
C      2.16398493     4.13980197     2.15962990
C     -4.20915980     3.27396483     2.18806083
O     -4.47500094     3.01315419     3.55137809
C     -4.88501732     2.18954164     1.31489704
O     -6.23854852     2.05897295     1.70354436
C     -4.13583132     0.83416775     1.41816896
O     -4.60837571    -0.04980507     0.41622006
C     -4.24941202     0.34877761    -0.90731604
O     -3.62485946     1.63352146    -1.06417222
C     -3.09038729     1.81299989    -2.37785123
C     -2.22073713     3.06462534    -2.41947090
O     -1.10070306     2.90766940    -1.56098142
C     -4.22214360     1.78788374    -3.43768325
O     -5.11126490     2.87562735    -3.28866999
C     -5.00798217     0.45840299    -3.32815869
O     -6.13484621     0.50392024    -4.18097353
C     -5.45629360     0.23152975    -1.86900114
O     -6.11144999    -1.01745378    -1.74008341
C     -2.14035468    -1.85451075    -1.99675017
O     -2.10759700    -0.99897872    -2.85688500
C     -3.00447727    -3.06782865    -2.21210151
C     -2.22086571    -4.35450642    -1.98620073
C     -1.05049154    -4.50291880    -2.95746654
C     -0.12755791    -5.67356596    -2.61819596
C      0.62739740    -5.46587410    -1.30566307
C      1.64577680    -6.56341046    -1.01270806
C      2.44502497    -6.30748772     0.26178838
C      3.26126221    -5.01422646     0.18413449
O      2.47757845    -3.84215779     0.23718940
P      2.19459794    -3.41576892     1.77638545
O      1.72168392    -1.97448425     1.85013228
O      3.48801620    -3.57782715     2.55951917
O      0.99449056    -4.39130905     2.26709923
C     -0.24026494    -3.72846521     2.09916993
C     -1.42796440    -4.51810407     2.63722875
N     -2.70680043    -3.69104860     2.81681382
C     -3.17090331    -3.10914519     1.50188514
C     -3.78699965    -4.60792967     3.35274091
C     -2.49433295    -2.56147220     3.80480385
H     -1.28651397     0.19747323    -1.10933680
H      1.20278328    -1.51872485    -0.71134308
H     -0.27255334    -0.96318273    -2.87949001
H      0.89724242     1.46297308    -1.35511016
H      2.28829768     2.66708370    -3.99573943
H      4.49778245     2.06517354    -4.12895863
H      6.62557229     1.14297903    -4.18758743
H      5.87731388    -0.79598949    -1.30724311
H      2.89639630    -0.64626284     0.75528377
H      3.14706810    -2.01830892    -0.34048288
H      4.46606239    -2.16898867     1.48020813
H     -0.26715519     1.84886926     0.64750275
H     -0.53962949     1.09710642     3.14669126
H      0.66201191     2.32858424     2.80219734
H      1.52096994    -0.35042062     2.76413238
H     -0.10532235    -1.10272225     1.37776809
H     -2.33248548     1.34627532     0.34209109
H     -2.50125179     3.44500116     0.84741445
H     -2.28533796     5.41575493     2.34282985
H     -2.22233261     4.34982902     3.75572878
H      1.12746064     4.29246722    -1.03701744
H      3.43747680     3.54392660    -1.40342176
H      4.93415322     1.26727203     1.82058412
H      7.12090061     0.21859630     1.43057478
H      8.68683884     1.20998525    -0.18710806
H      8.06551312     3.25170631    -1.40343058
H      5.87949178     4.30547127    -1.00444705
H      4.09694778     3.51029303     2.79936553
H      1.79077593     4.29778449     3.15779910
H     -4.65702661     4.25647614     1.97481662
H     -3.88952895     2.29632366     3.86067807
H     -4.90549065     2.49107358     0.25936006
H     -6.29316596     2.08586392     2.67928318
H     -4.38753477     0.36154609     2.37441470
H     -3.49737905    -0.38747974    -1.21049531
H     -2.43286468     0.95216229    -2.55713071
H     -2.82320130     3.93308479    -2.12576019
H     -1.84954333     3.24952210    -3.43436852
H     -1.03797737     3.64332559    -0.90700722
H     -3.78060691     1.87434602    -4.44365299
H     -5.91035511     2.70519799    -3.82564409
H     -4.37004766    -0.38103571    -3.64284353
H     -6.70900320    -0.26301506    -4.01093680
H     -6.17932417     1.01830741    -1.61184044
H     -6.36349832    -1.15872826    -0.81014156
H     -3.39777928    -3.04028367    -3.23240297
H     -3.87288926    -3.00795960    -1.54860865
H     -1.84244028    -4.35451126    -0.95896019
H     -2.87835239    -5.22955585    -2.05847098
H     -0.46499861    -3.57617060    -2.95859481
H     -1.43773454    -4.60058640    -3.97892115
H      0.59807860    -5.82439895    -3.42748765
H     -0.70665878    -6.60299266    -2.57020437
H     -0.07506576    -5.39723781    -0.46846366
H      1.13506018    -4.49457875    -1.33164862
H      2.33412088    -6.65358739    -1.86121070
H      1.13123672    -7.53030913    -0.95294093
H      1.76513135    -6.24446285     1.11841962
H      3.10801126    -7.15762745     0.46503045
H      4.00881215    -4.95885039     0.99383485
H      3.82672567    -4.97900312    -0.76171306
H     -0.15469968    -2.77366028     2.63742189
H     -0.35704320    -3.48464436     1.03031857
H     -1.63972088    -5.36790597     1.98610395
H     -1.16027813    -4.93890007     3.60852620
H     -3.36072639    -3.90345015     0.78580481
H     -4.08732824    -2.54197084     1.64470662
H     -2.42180995    -2.43457219     1.09589041
H     -4.71637758    -4.05940937     3.48590932
H     -3.48846142    -5.02228389     4.31269393
H     -3.96535941    -5.42679582     2.65985924
H     -3.44374628    -2.08654811     4.03752087
H     -2.05982579    -2.93961623     4.72684517
H     -1.83744870    -1.80234522     3.38844285

