%chk=cand12_PAPU-0125_conf02.chk
%nprocshared=8
%mem=16GB
#P B3LYP/6-31G(d) SCRF=(PCM,Solvent=Water) Pop=MK NoSymm

cand12_PAPU-0125 conformer 2 (Boltzmann pop=0.269)

0 1
C      5.86450780     2.03309985     4.97637093
C      6.23425520     1.79095172     3.52111146
C      7.28100574     2.78053513     2.99929300
C      7.57978438     2.62239690     1.50500083
C      8.27924231     1.30567670     1.15059331
C      8.42064950     1.07726206    -0.32096904
C      7.38689461     1.13275606    -1.15785293
C      7.42547446     0.74790193    -2.55663069
C      6.33507665     0.76659245    -3.32072788
C      6.25325703     0.13463020    -4.67788689
O      6.79489855    -1.18509382    -4.66278157
C      4.80316371     0.13018488    -5.20676397
C      3.85710678    -0.45849627    -4.21736509
C      2.59369665    -0.06766802    -4.04807596
C      1.74069931    -0.54413450    -2.97904525
C      2.17982723    -1.26619730    -1.94293377
C      1.34293039    -1.65544133    -0.79377596
O      1.40508905    -2.79960250    -0.38081661
O      0.56474538    -0.67248112    -0.23001654
C     -0.09158229    -1.11403960     0.96560759
C     -1.50293647    -1.66248523     0.61787657
O     -1.39208560    -2.84355357    -0.18096890
C     -2.35449515    -1.91118731     1.89338640
C     -3.71722745    -2.49874048     1.57913809
C     -4.71258464    -1.67155124     1.01448678
O     -4.49145483    -0.31171907     0.90895461
C     -5.91395053    -2.22111155     0.58291711
C     -6.16641931    -3.57740225     0.71773040
O     -7.33313533    -4.18602884     0.29810236
C     -5.19104213    -4.37365020     1.31895365
C     -3.98834549    -3.85432147     1.75799189
C     -2.98051268    -4.79698468     2.34783642
O     -2.01655269    -5.22785338     1.41070903
O     -2.42843732    -0.70096008     2.67309524
C     -1.14556838    -0.29474866     3.16170081
C     -1.31107353     0.90333591     4.09198622
O     -2.15409379     0.60326712     5.17516309
C     -0.17058472     0.02908576     2.00612248
O      1.11636606     0.35518062     2.54768056
C      1.74780238     1.40042848     1.81634756
O      0.78763086     2.18978724     1.10045801
C      1.32070483     3.28823585     0.37084876
C      0.18223144     4.09280374    -0.24322910
O     -0.76345420     4.48548575     0.70623696
C      2.25166935     2.71134850    -0.72209613
O      1.49680173     1.89155083    -1.58415883
C      3.40834444     1.91269904    -0.07121459
O      4.22346461     1.31451278    -1.06373939
C      2.87239028     0.83420966     0.90553286
O      3.95372770     0.37509618     1.71446730
C      4.44371260    -0.92180529     1.40180720
O      4.91243903    -1.14766117     0.06398056
C      5.72747206    -2.32530036    -0.00877509
C      6.37734618    -2.44382607    -1.38827258
O      5.44532663    -2.59956096    -2.42493705
C      4.91804450    -3.59777855     0.38449493
O      4.00029302    -3.99969031    -0.61778029
C      4.23649152    -3.40635669     1.76996971
O      3.35345347    -4.47350425     2.05447234
C      3.48428747    -2.05976453     1.81342427
O      2.91120558    -1.83309321     3.08442884
C     -9.26467778    -1.49459168    -1.59935706
O     -9.26283726    -2.66914559    -1.33839960
C     -8.06036239    -0.72426620    -1.89327554
C     -7.96398234     0.62122220    -1.56363343
C     -6.75669552     1.27079501    -1.66551243
C     -5.60558118     0.60833055    -2.08261013
O     -4.35605488     1.22554502    -2.06484357
C     -4.23479888     2.12356115    -0.95741492
O     -4.90331062     3.38750258    -1.11632106
C     -4.85329079     4.22195390     0.05813165
C     -5.53737392     5.54652105    -0.25485411
O     -4.99539743     6.09714446    -1.42461978
C     -3.38601431     4.46155143     0.48925074
O     -3.23345543     5.28944557     1.62350882
C     -2.70129662     3.11710233     0.72797232
O     -1.43285501     3.31967823     1.28561879
C     -2.73901725     2.33965612    -0.60351082
O     -2.11313818     3.05025370    -1.65303634
C     -5.71159760    -0.75023836    -2.49061127
O     -4.60819350    -1.49862281    -2.93772408
C     -3.44563829    -1.28388873    -2.17433397
C     -6.94012401    -1.37854681    -2.39565223
H      5.44827391     3.03196026     5.11712177
H      6.73910767     1.95295999     5.62396061
H      5.12365561     1.31535659     5.33424389
H      6.60193193     0.76532783     3.39948845
H      5.33627226     1.84551772     2.89195627
H      6.93392621     3.80148568     3.20232408
H      8.20820969     2.67228319     3.57405601
H      6.63931535     2.70011758     0.94864559
H      8.19331276     3.45824248     1.14628928
H      7.71494810     0.46564613     1.57059857
H      9.25988638     1.26794418     1.63975574
H      9.38299349     0.77476385    -0.70462275
H      6.41260540     1.39700054    -0.77963660
H      8.34231310     0.33525017    -2.94566667
H      5.41293427     1.14725733    -2.91063965
H      6.89962456     0.69848141    -5.37030679
H      6.35415107    -1.70976478    -3.96145137
H      4.49221803     1.15475011    -5.43780811
H      4.75638200    -0.43130290    -6.14539209
H      4.26220897    -1.21748229    -3.56813360
H      2.18785299     0.69296992    -4.69844854
H      0.70524053    -0.23654615    -3.00394328
H      3.20968381    -1.57634152    -1.89589988
H      0.51289821    -1.92244420     1.39430996
H     -2.00655927    -0.90514957     0.00636670
H     -0.43798902    -2.95764879    -0.38596009
H     -1.80124461    -2.62348013     2.51492090
H     -3.72562293    -0.12183887     1.49228189
H     -6.65738941    -1.57714803     0.15201252
H     -7.92891725    -3.59592034    -0.21291775
H     -5.39055265    -5.42543490     1.41878866
H     -3.47731748    -5.69747350     2.72721500
H     -2.47236492    -4.35253431     3.21134022
H     -1.76077833    -4.47281983     0.83121339
H     -0.74207420    -1.13685957     3.74068315
H     -1.72914145     1.75469803     3.54217567
H     -0.34295190     1.22131060     4.49558787
H     -2.95057360     0.13987773     4.86130843
H     -0.54545521     0.92824614     1.49924512
H      2.20992536     2.05748023     2.56616177
H      1.87860030     3.90988704     1.08630631
H     -0.34170263     3.46009829    -0.96332395
H      0.54416305     4.98457802    -0.76536354
H      2.65941985     3.51658517    -1.35230891
H      1.16021293     1.11861916    -1.07126204
H      4.05240185     2.59588916     0.50245674
H      4.50126432     0.42920803    -0.72638095
H      2.48675785    -0.02648885     0.35548903
H      5.33313394    -1.00974660     2.04147002
H      6.52447930    -2.17827885     0.73693324
H      6.94990612    -1.53734037    -1.60718622
H      7.07970903    -3.28586936    -1.42158302
H      4.83716717    -3.32262880    -2.17274080
H      5.61782364    -4.44659978     0.45834831
H      3.11263706    -3.61109697    -0.46744672
H      5.00416645    -3.39920649     2.55915847
H      2.83557270    -4.27538990     2.85540331
H      2.65916156    -2.11947036     1.09504258
H      2.35638025    -1.02198311     3.02971535
H    -10.22068198    -0.98615964    -1.58794367
H     -8.82970494     1.13668012    -1.18251556
H     -6.67826198     2.30754644    -1.39311489
H     -4.72783783     1.62693897    -0.10874185
H     -5.38076126     3.69656509     0.86710056
H     -5.38953239     6.26836742     0.55750961
H     -6.61656707     5.41432800    -0.40043342
H     -4.94741977     5.40123378    -2.10897025
H     -2.86840828     4.96227603    -0.34372577
H     -2.29430158     5.24970723     1.90364283
H     -3.27406765     2.56261246     1.48532264
H     -2.21610210     1.37740408    -0.50114336
H     -2.44202279     2.72586697    -2.51060532
H     -2.77960251    -0.61285761    -2.71818823
H     -2.95431854    -2.24152845    -1.99229089
H     -3.72789110    -0.83277629    -1.22254607
H     -7.00959166    -2.41972563    -2.65555306

