%chk=cand12_PAPU-0125_conf01.chk
%nprocshared=8
%mem=16GB
#P B3LYP/6-31G(d) SCRF=(PCM,Solvent=Water) Pop=MK NoSymm

cand12_PAPU-0125 conformer 1 (Boltzmann pop=0.299)

0 1
C      5.67532150     2.18624117     4.96280450
C      6.10446736     1.90244612     3.53163298
C      7.20474842     2.84890863     3.04119225
C      7.56493561     2.65497418     1.56487248
C      8.23543724     1.31062367     1.26300771
C      8.42870131     1.05308253    -0.19769294
C      7.42603741     1.10236923    -1.07193380
C      7.51342322     0.70057935    -2.46369193
C      6.45273441     0.71946366    -3.26842127
C      6.41656388     0.07422961    -4.62129623
O      6.96774231    -1.24064456    -4.57879407
C      4.98271433     0.05326617    -5.19262208
C      4.01017760    -0.52491068    -4.22241703
C      2.74682584    -0.12253055    -4.08283405
C      1.86419334    -0.58472780    -3.03199788
C      2.26301166    -1.32837729    -1.99467972
C      1.39380058    -1.69356899    -0.86118175
O      1.40785739    -2.83972962    -0.44778614
O      0.64039925    -0.68307042    -0.31247774
C     -0.07352710    -1.10916312     0.85331626
C     -1.49022465    -1.59443055     0.45113987
O     -1.41325923    -2.71964980    -0.42649768
C     -2.36149404    -1.88133658     1.70245555
C     -3.69516809    -2.50091500     1.34250848
C     -4.80550038    -1.69749042     1.00654435
O     -4.71930989    -0.32201102     1.08546181
C     -5.99192290    -2.29342746     0.59728798
C     -6.10848144    -3.67239703     0.51032043
O     -7.26370262    -4.31131804     0.10326022
C     -5.00207735    -4.45198731     0.85016483
C     -3.80703854    -3.88496496     1.25023380
C     -2.63309145    -4.76676973     1.56143228
O     -2.15649305    -4.63811116     2.88665916
O     -2.44695437    -0.69140066     2.51258874
C     -1.16853833    -0.30846372     3.03457027
C     -1.33407296     0.87620590     3.98243845
O     -2.18719316     0.56744561     5.05495412
C     -0.16681439     0.02375881     1.90389588
O      1.10728433     0.35183455     2.47179929
C      1.75076333     1.39369440     1.74649793
O      0.79944248     2.17784332     1.01361529
C      1.33711092     3.27103420     0.28050885
C      0.19744134     4.06616739    -0.34516188
O     -0.73351998     4.49465661     0.60461323
C      2.28266715     2.68813644    -0.79741900
O      1.54072122     1.86431386    -1.66657394
C      3.43180828     1.89274744    -0.12658500
O      4.25721234     1.28317128    -1.10366450
C      2.88609243     0.82200651     0.85325855
O      3.95715841     0.36696439     1.67813415
C      4.44264324    -0.93683614     1.38630766
O      4.94219662    -1.17431585     0.06151035
C      5.75048069    -2.35847659     0.01889928
C      6.44228872    -2.49178972    -1.33840522
O      5.54252234    -2.66063768    -2.40113741
C      4.92058666    -3.62272816     0.39517205
O      4.02446214    -4.02035715    -0.62874385
C      4.20662624    -3.42013101     1.76194904
O      3.30636540    -4.47804185     2.02708914
C      3.46611436    -2.06652870     1.78318496
O      2.87198334    -1.83270655     3.04304106
C     -9.37076801    -1.46507424    -1.34069582
O     -9.37569485    -2.64540729    -1.10614962
C     -8.17029895    -0.70047487    -1.66656389
C     -8.04551345     0.63651229    -1.31257316
C     -6.83618290     1.27630385    -1.44902471
C     -5.70835011     0.61227313    -1.92359478
O     -4.45382417     1.21882092    -1.94700177
C     -4.28784584     2.12886756    -0.85483007
O     -4.95461079     3.39462789    -1.00738440
C     -4.85238833     4.24796646     0.15005889
C     -5.54840480     5.56885795    -0.15189966
O     -5.06637226     6.09530472    -1.35838569
C     -3.36706027     4.49017109     0.51119907
O     -3.16051140     5.34311240     1.61830036
C     -2.68110033     3.14677865     0.75130281
O     -1.38849968     3.35399246     1.24799180
C     -2.77783632     2.34042675    -0.55896845
O     -2.17898318     3.01986549    -1.64373369
C     -5.84520634    -0.73688357    -2.35389209
O     -4.77406005    -1.49422385    -2.85816261
C     -3.55902253    -1.25712875    -2.19057595
C     -7.07700971    -1.35349314    -2.22660897
H      5.28270424     3.19934386     5.06387560
H      6.51650512     2.09517947     5.65179550
H      4.89808271     1.49783689     5.30027913
H      6.44460113     0.86374457     3.44682286
H      5.23899686     1.97098522     2.85996498
H      6.88192534     3.88364691     3.21143265
H      8.10129047     2.72210768     3.65904448
H      6.65383698     2.75315832     0.96454235
H      8.22119760     3.46415809     1.22114920
H      7.62722855     0.49663417     1.67276683
H      9.19341636     1.25020227     1.79310513
H      9.40298162     0.74164854    -0.54185687
H      6.44038398     1.37709775    -0.73243091
H      8.44052014     0.27583746    -2.81352336
H      5.51953097     1.11378285    -2.89839315
H      7.07853979     0.63715328    -5.29955713
H      6.50201369    -1.76621009    -3.89453103
H      4.67362395     1.07225040    -5.44930938
H      4.96722885    -0.52294424    -6.12330081
H      4.39484062    -1.28259949    -3.55961444
H      2.36292998     0.63917740    -4.74531301
H      0.83882861    -0.24548017    -3.07193244
H      3.28163202    -1.67082424    -1.93350044
H      0.48299639    -1.94411256     1.29670464
H     -1.96294580    -0.78370923    -0.11532352
H     -0.45930194    -2.91691040    -0.55301752
H     -1.82655152    -2.60499486     2.33235882
H     -3.89980182    -0.13498269     1.58977487
H     -6.82894195    -1.66654835     0.35254795
H     -7.94324272    -3.69631233    -0.25008459
H     -5.09436291    -5.52036273     0.77512517
H     -1.79809492    -4.50946591     0.90069638
H     -2.86550019    -5.82058748     1.36644846
H     -2.83796544    -4.89300445     3.53280176
H     -0.78654101    -1.16570675     3.60632104
H     -1.74024918     1.73957828     3.44274092
H     -0.36686173     1.18036964     4.39859771
H     -2.98266564     0.11041546     4.72927742
H     -0.53482275     0.92650874     1.39836234
H      2.20278806     2.05437649     2.49926413
H      1.88620266     3.90063254     0.99579251
H     -0.34024758     3.41901576    -1.04247533
H      0.56127270     4.94045126    -0.89471806
H      2.69876516     3.49085527    -1.42530192
H      1.20974557     1.08705450    -1.15685998
H      4.07040792     2.58029781     0.44786715
H      4.53229817     0.40178015    -0.75313138
H      2.50722870    -0.04288009     0.30532301
H      5.31583742    -1.02672230     2.04788968
H      6.52569768    -2.21283858     0.78760115
H      7.02117183    -1.58745541    -1.54939693
H      7.14587518    -3.33345751    -1.34072709
H      4.92668581    -3.38087258    -2.15964216
H      5.61125373    -4.47691165     0.48980605
H      3.13088712    -3.64025859    -0.49208272
H      4.95416856    -3.41782644     2.57020726
H      2.76741925    -4.27031545     2.81155217
H      2.65425186    -2.12313535     1.04952780
H      2.31963026    -1.02120015     2.97448451
H    -10.31864484    -0.94532940    -1.27828918
H     -8.88981243     1.15262007    -0.88680643
H     -6.73821718     2.30747682    -1.16209811
H     -4.75362653     1.64572933     0.01683956
H     -5.34365604     3.73599085     0.98991839
H     -5.35667901     6.30514285     0.63800944
H     -6.63408430     5.43799717    -0.23837665
H     -5.05087724     5.38449919    -2.02906897
H     -2.88382905     4.96759678    -0.35576220
H     -2.21033336     5.30285337     1.85826928
H     -3.22457526     2.61291221     1.54425089
H     -2.26059261     1.37633254    -0.45165141
H     -2.52771081     2.66920612    -2.48312857
H     -3.01375990    -2.19741393    -2.09097690
H     -3.77207770    -0.85536598    -1.19936749
H     -2.97294083    -0.53675031    -2.76229486
H     -7.16718215    -2.38758740    -2.50746720

