%chk=cand11_PAPU-0138_conf02.chk
%nprocshared=8
%mem=16GB
#P B3LYP/6-31G(d) SCRF=(PCM,Solvent=Water) Pop=MK NoSymm

cand11_PAPU-0138 conformer 2 (Boltzmann pop=0.072)

0 1
C      0.64617118     4.71450218     0.07081874
C      1.31620494     5.38305926     1.26065200
C      2.83988136     5.21345341     1.28145896
C      3.28059545     3.76005277     1.44849965
C      4.79476706     3.58098931     1.58885166
C      5.19404623     2.14929284     1.69501282
C      6.41268442     1.73473846     2.03983203
C      6.77328409     0.32858287     2.06582593
C      7.69589807    -0.19132654     2.87535729
C      7.99779563    -1.66047459     2.98804285
O      9.36213875    -1.90087116     3.35190162
C      7.05625368    -2.38041361     3.97551657
C      5.61108393    -2.19989161     3.64353819
C      4.90064302    -1.14054800     4.03518811
C      3.60201465    -0.80889175     3.49999564
C      2.97066274     0.33604269     3.77218689
C      1.77252022     0.74290764     3.03574921
O      1.45643391     1.91912407     3.02427105
O      1.09425177    -0.25133193     2.36837346
C      0.25568030     0.24374292     1.32424201
C     -1.20398263     0.50024625     1.77312320
O     -1.25198056     1.47053419     2.82034260
C     -2.06587879     0.94086355     0.55201026
C     -3.48017348     1.24979393     0.98637016
C     -4.32856239     0.18343022     1.34985197
O     -3.98273700    -1.12321647     1.06476437
C     -5.54423393     0.45315147     1.96823775
C     -5.97181982     1.75542409     2.18224275
O     -7.17217918     2.05208005     2.80247987
C     -5.15133163     2.79608744     1.74908191
C     -3.92382047     2.56108585     1.15802763
C     -3.07691500     3.73551317     0.76096577
O     -2.03929276     4.02064288     1.67796994
O     -1.98660195    -0.02606724    -0.52381150
C     -0.63830163    -0.22225441    -0.99036543
C     -0.59623809    -1.11349605    -2.23304045
O     -1.11006375    -0.46523396    -3.37143113
C      0.26086365    -0.75120230     0.14750932
O      1.58106543    -1.10260816    -0.25245658
C      2.32095842    -0.02431784    -0.80718637
O      1.74349659     0.48565411    -2.01641657
C      2.36755758     1.67253984    -2.51619353
C      1.65495946     2.10233136    -3.79768363
O      0.26058177     2.20190025    -3.62907574
C      3.87464344     1.42968521    -2.79865724
O      4.05943107     0.60194244    -3.93009219
C      4.59327113     0.80479124    -1.57887740
O      5.90856176     0.43188320    -1.96010560
C      3.80594750    -0.41664810    -1.04199557
O      4.41209579    -0.89668752     0.15984718
C      5.07921385    -2.14355366     0.01604547
O      6.09180372    -2.20194712    -0.99697273
C      6.88869249    -3.39147000    -0.90862021
C      8.00646734    -3.34554902    -1.95348806
O      7.49275598    -3.23977906    -3.25524774
C      6.00449113    -4.66553618    -1.06145537
O      5.43793679    -4.78682311    -2.35314055
C      4.86063637    -4.65968419    -0.01913142
O      3.98553867    -5.74327461    -0.26882845
C      4.09718060    -3.32722737    -0.13071267
O      3.05381745    -3.26025417     0.82159911
C     -0.09394669     3.45366692    -3.19673117
O      0.68678506     4.36325894    -2.99033354
C     -1.55050062     3.65042881    -2.97382053
C     -2.15590779     4.89252163    -3.10102469
C     -3.51777573     5.02331900    -2.90905824
C     -4.28262030     3.92606746    -2.57370739
C     -3.69011997     2.67756332    -2.41587708
N     -4.38009047     1.54262822    -1.96410388
C     -5.75272771     1.40924693    -1.77870497
O     -6.55121417     2.28180388    -2.07565691
C     -6.20110413     0.15250933    -1.18977179
C     -7.49161806    -0.15279523    -0.99126097
C     -7.96982142    -1.37360512    -0.36262939
C     -7.11261913    -2.24619091     0.31350224
C     -7.59300644    -3.38927108     0.89904803
C     -8.95140970    -3.71970046     0.84608047
O     -9.34484508    -4.89991779     1.47100563
C    -10.74382395    -5.17614664     1.44978407
C    -11.24886403    -5.58913402     0.10734824
C    -10.50136545    -6.20763974    -0.78696132
C     -9.80779650    -2.84107962     0.17447363
C     -9.32774331    -1.69706645    -0.41180988
C     -2.32564698     2.56162667    -2.63489476
H     -0.42974121     4.89930544     0.05546998
H      1.05477350     5.08016132    -0.87285515
H      0.78457426     3.63295065     0.08659579
H      0.89628045     4.98259378     2.19239494
H      1.06421832     6.45204954     1.26926049
H      3.27204211     5.81293091     2.09247444
H      3.26959235     5.62235852     0.35949032
H      2.78679815     3.33217868     2.32754691
H      2.92205844     3.16501595     0.60177768
H      5.15304628     4.12674671     2.46926584
H      5.30407032     4.03611773     0.73130424
H      4.44220977     1.41276180     1.45521293
H      7.16907794     2.45659802     2.30245671
H      6.19794979    -0.30261537     1.40694598
H      8.21362027     0.46072271     3.55720987
H      7.85481394    -2.11224060     1.99395150
H      9.97575067    -1.46117074     2.73738710
H      7.31578418    -3.44367291     4.01573188
H      7.25301236    -1.99397225     4.97994050
H      5.15686871    -2.89586705     2.95619508
H      5.33993517    -0.41753371     4.70594521
H      3.18139907    -1.45961402     2.74926247
H      3.37926490     1.05363282     4.46417612
H      0.68166472     1.19906428     0.99367109
H     -1.61652987    -0.42999266     2.18789477
H     -0.32252872     1.67250861     3.06355892
H     -1.61600174     1.85559247     0.15129625
H     -3.19365832    -1.08920335     0.48545350
H     -6.16521195    -0.37000295     2.26481444
H     -7.62161002     1.24229442     3.10160638
H     -5.48694677     3.80481187     1.90743927
H     -3.69057606     4.63980552     0.67593904
H     -2.63704711     3.57914727    -0.22947171
H     -1.75925726     3.18496868     2.12127318
H     -0.25884914     0.76718316    -1.27436136
H     -1.18522580    -2.02114234    -2.06748187
H      0.43524938    -1.42305749    -2.44567406
H     -0.60900875     0.36536020    -3.53108515
H     -0.18052316    -1.68944321     0.51098475
H      2.30850195     0.78570703    -0.07020873
H      2.23586509     2.44615758    -1.74650100
H      1.83282194     1.34289147    -4.56760863
H      2.03990016     3.05662588    -4.17738061
H      4.34963766     2.39458465    -3.04035557
H      4.99710825     0.33055745    -3.97888930
H      4.68765203     1.54755922    -0.77514058
H      6.08318199    -0.47543018    -1.62200284
H      3.84063594    -1.21625668    -1.79092832
H      5.61052456    -2.28343556     0.96447228
H      7.33399041    -3.39083966     0.09735883
H      8.63585174    -4.24221685    -1.89829676
H      8.65462460    -2.47671075    -1.79229701
H      6.66245158    -3.75471368    -3.28217006
H      6.63208315    -5.55884652    -0.91130062
H      4.74862670    -5.47756316    -2.32983757
H      5.26485202    -4.76759267     0.99825247
H      3.18847444    -5.65731899     0.28225680
H      3.64727648    -3.29551738    -1.13311373
H      2.49721529    -2.48212095     0.59324776
H     -1.54871198     5.74364275    -3.35998981
H     -3.98423774     5.98874914    -3.01972790
H     -5.34309836     4.01507435    -2.41656911
H     -3.77664001     0.81377968    -1.59600560
H     -5.42644482    -0.53258503    -0.89226385
H     -8.24467718     0.55042781    -1.31387755
H     -6.06782180    -2.00367831     0.40945172
H     -6.93074381    -4.05697371     1.42252497
H    -11.27384470    -4.30183054     1.84502295
H    -10.90132089    -5.98871032     2.16913585
H    -12.28989175    -5.40098211    -0.11129490
H     -9.46614347    -6.43287637    -0.60483121
H    -10.89080447    -6.50693827    -1.74319849
H    -10.85570850    -3.06951672     0.10580159
H    -10.00263557    -1.03471211    -0.92727428
H     -1.86857960     1.59607261    -2.54413746

