%chk=cand11_PAPU-0138_conf05.chk
%nprocshared=8
%mem=16GB
#P B3LYP/6-31G(d) SCRF=(PCM,Solvent=Water) Pop=MK NoSymm

cand11_PAPU-0138 conformer 5 (Boltzmann pop=0.049)

0 1
C      0.16651222     4.31322326     0.58198407
C      1.14788889     5.43615403     0.28824205
C      2.60956876     5.06277028     0.56310645
C      2.92124411     4.86678128     2.04838593
C      4.41587629     4.66719887     2.34227413
C      4.96649121     3.36643407     1.86357511
C      6.20629134     2.95600866     2.13115487
C      6.72662542     1.66040903     1.73272542
C      7.70134740     1.03519690     2.39570739
C      8.15199926    -0.37284707     2.12343307
O      9.55008120    -0.55120216     2.37724939
C      7.33073768    -1.38909257     2.93877380
C      5.87261901    -1.32010661     2.63586118
C      5.00685231    -0.55028153     3.29807976
C      3.64949019    -0.34364195     2.85048997
C      2.88697371     0.69231044     3.20589447
C      1.60536444     0.94443739     2.53691902
O      1.22690343     2.09408852     2.40049160
O      0.92787966    -0.16213952     2.07254221
C     -0.09396708     0.15313417     1.12411924
C     -1.49220151     0.38487862     1.75698793
O     -1.44962826     1.45683684     2.69902820
C     -2.55904564     0.66192977     0.65023360
C     -3.94025236     0.76414420     1.25427065
C     -4.55920681    -0.41284697     1.72171838
O     -3.99215155    -1.65037551     1.48821174
C     -5.76705488    -0.33121282     2.40341569
C     -6.39969664     0.88698935     2.60503405
O     -7.60129603     0.99853129     3.28154240
C     -5.79212654     2.03527026     2.09776301
C     -4.58421625     1.98735999     1.42696044
C     -3.97872086     3.26519878     0.92607480
O     -2.93373060     3.75554451     1.74080935
O     -2.51254398    -0.31955410    -0.41215477
C     -1.21831401    -0.44174704    -1.01859539
C     -1.28695961    -1.30470575    -2.27195913
O     -2.22133412    -0.77705052    -3.19268306
C     -0.22415858    -0.94770768     0.04668245
O      1.00149176    -1.46929883    -0.46385492
C      1.96801047    -0.47048305    -0.74208018
O      1.74606104     0.28838587    -1.93506489
C      2.60031484     1.44162470    -2.03315604
C      2.36749470     2.12012151    -3.38365330
O      1.01227540     2.43639324    -3.57565058
C      4.10797901     1.08170568    -1.88483297
O      4.61259474     0.47619863    -3.05885219
C      4.37779097     0.15233882    -0.67609773
O      5.73638311    -0.25663802    -0.69681240
C      3.40706143    -1.04571222    -0.72981238
O      3.57874801    -1.93789681     0.37214832
C      4.26193778    -3.14870420     0.08400651
O      5.65456634    -3.00907614    -0.22804079
C      6.34302780    -4.26504874    -0.23718257
C      7.83736324    -4.02820485    -0.47260600
O      8.07039378    -3.37297439    -1.69128039
C      5.72606416    -5.22291261    -1.30111159
O      5.92590387    -4.76881199    -2.62680092
C      4.20592425    -5.39840316    -1.06202346
O      3.64105093    -6.14136385    -2.12595027
C      3.54417508    -4.00890013    -0.98054112
O      2.16090553    -4.12998256    -0.71421309
C      0.69786735     3.63948661    -2.99765823
O      1.50819117     4.43864836    -2.56850785
C     -0.75973965     3.88627283    -2.86864769
C     -1.28914366     5.15426128    -2.67888453
C     -2.64501086     5.31109251    -2.47414370
C     -3.47209864     4.20927169    -2.43386505
C     -2.95944311     2.92755034    -2.61328049
N     -3.73211914     1.76637642    -2.46332701
C     -5.01683792     1.69358463    -1.93177429
O     -5.69560288     2.67913976    -1.69513891
C     -5.51719917     0.35833351    -1.62162801
C     -6.76116834     0.13166632    -1.17388818
C     -7.28043360    -1.16354822    -0.76795737
C     -6.44324908    -2.25822697    -0.54240903
C     -6.95484931    -3.46496486    -0.13980808
C     -8.32908127    -3.64457790     0.05155298
O     -8.75826648    -4.90736451     0.45137266
C    -10.17074095    -5.07727094     0.55317907
C    -10.76948314    -4.39321770     1.73684102
C    -10.11862344    -4.20688311     2.86940023
C     -9.16465848    -2.54445923    -0.16849493
C     -8.65134176    -1.33486939    -0.56409341
C     -1.60075436     2.79219750    -2.85947858
H     -0.86604474     4.60393886     0.37642908
H      0.38686661     3.43348877    -0.02401238
H      0.21556971     4.00402647     1.62604471
H      0.88562028     6.32612778     0.87403256
H      1.04419814     5.74182689    -0.76140207
H      3.27176401     5.84010259     0.16136115
H      2.86628249     4.15516270     0.00569535
H      2.54836075     5.73607469     2.60402259
H      2.35783055     4.01157025     2.43779490
H      4.59480357     4.74072452     3.42240567
H      4.99078409     5.48616529     1.89460740
H      4.30536306     2.71865179     1.31162374
H      6.86029829     3.58662739     2.71291017
H      6.25682631     1.18422176     0.88601952
H      8.13518960     1.51138266     3.25838524
H      7.99367188    -0.58659688     1.05316224
H     10.08537273     0.07605578     1.86042535
H      7.71471635    -2.39806936     2.75481019
H      7.50019366    -1.20045751     4.00295463
H      5.53913308    -1.81356444     1.73665769
H      5.33510603     0.01751503     4.15476355
H      3.27482438    -1.00816738     2.08846550
H      3.24074581     1.43563351     3.90052985
H      0.20359017     1.08957146     0.63445699
H     -1.78150883    -0.51399872     2.31881352
H     -0.51257421     1.74479139     2.75719732
H     -2.30322095     1.61630163     0.17793353
H     -3.30061901    -1.52224059     0.80599016
H     -6.21555651    -1.23892346     2.75866703
H     -7.88944701     0.13597176     3.62817396
H     -6.28484330     2.97839878     2.24889832
H     -4.73918345     4.05231338     0.86496997
H     -3.60097055     3.13608194    -0.09334336
H     -2.42955355     2.99730957     2.12111471
H     -0.91563804     0.57050489    -1.31413020
H     -1.59041592    -2.32001127    -1.99524057
H     -0.29639350    -1.35687633    -2.74064559
H     -2.25950965    -1.30790687    -4.00887746
H     -0.69580391    -1.81340202     0.53327403
H      1.91410687     0.24395719     0.08643150
H      2.29041569     2.12235126    -1.22752853
H      2.65516795     1.42648188    -4.18225907
H      2.96923834     3.03055719    -3.49248208
H      4.67873151     2.01474832    -1.74899633
H      5.51162459     0.13817354    -2.88039538
H      4.20394557     0.68995368     0.26638442
H      5.77190478    -1.22747142    -0.53685747
H      3.57388743    -1.58772277    -1.66601923
H      4.22355786    -3.70596052     1.03103540
H      6.19779578    -4.70248172     0.76240203
H      8.39267755    -4.97409862    -0.47163014
H      8.26032563    -3.39667827     0.31694552
H      7.41594510    -3.71403545    -2.33227774
H      6.22269233    -6.20409380    -1.23061120
H      5.35315811    -5.28485947    -3.22571931
H      4.02359868    -5.94495891    -0.12459935
H      2.67050898    -6.12455017    -2.06097673
H      3.65793781    -3.54172313    -1.96767127
H      1.77322537    -3.23481314    -0.57672412
H     -0.62955407     6.00530641    -2.69219144
H     -3.05549038     6.29712325    -2.32860263
H     -4.52607669     4.31952428    -2.25013495
H     -3.24889300     0.89052965    -2.64638831
H     -4.81448927    -0.44973065    -1.73050229
H     -7.44146022     0.96621451    -1.09122647
H     -5.37950214    -2.14270685    -0.65313639
H     -6.30427555    -4.30264561     0.04269482
H    -10.34018792    -6.15816282     0.62766281
H    -10.62547183    -4.75407727    -0.39041649
H    -11.79976478    -4.07757481     1.65989693
H     -9.09984815    -4.52449658     2.99877833
H    -10.57640073    -3.72564964     3.71469263
H    -10.22330821    -2.64251085    -0.01212472
H     -9.31013208    -0.49781556    -0.72254363
H     -1.18459693     1.81533716    -3.02633790

