%chk=cand11_PAPU-0138_conf03.chk
%nprocshared=8
%mem=16GB
#P B3LYP/6-31G(d) SCRF=(PCM,Solvent=Water) Pop=MK NoSymm

cand11_PAPU-0138 conformer 3 (Boltzmann pop=0.066)

0 1
C      1.02908034     4.29987274     0.17735025
C      1.76215825     4.88208918     1.37543731
C      3.28677533     4.72828905     1.29872777
C      3.76062943     3.28195745     1.44607330
C      5.28494849     3.13107232     1.44636467
C      5.73042570     1.71324941     1.57491603
C      6.76200626     1.31416821     2.31863100
C      7.16689273    -0.07950589     2.40049103
C      7.67835932    -0.63870196     3.49812188
C      7.91873493    -2.11390034     3.66447450
O      9.12933352    -2.38614200     4.37978152
C      6.72978063    -2.81632285     4.35282827
C      5.40850304    -2.51127121     3.72445254
C      4.70671532    -1.41376047     4.00835463
C      3.50935392    -1.01388497     3.31044592
C      2.88836717     0.14428826     3.54572118
C      1.74518735     0.58984736     2.74697122
O      1.48098561     1.77896383     2.70964244
O      1.03642222    -0.37955434     2.07916237
C      0.17554119     0.16265586     1.07923255
C     -1.26532271     0.42430819     1.57881343
O     -1.25741426     1.33835365     2.67701842
C     -2.13662915     0.95175285     0.39998000
C     -3.52833806     1.29766917     0.87517751
C     -4.41387016     0.25196580     1.20779459
O     -4.12402756    -1.05443427     0.86469474
C     -5.60950711     0.54464766     1.85407402
C     -5.98025157     1.85326697     2.12778355
O     -7.15945982     2.17278314     2.77645964
C     -5.12288064     2.87716225     1.72712961
C     -3.91428378     2.61768594     1.10810472
C     -3.02317844     3.77196193     0.74899513
O     -1.95751474     3.96700721     1.65714724
O     -2.11263913     0.03183789    -0.71898843
C     -0.78303034    -0.17244030    -1.23416038
C     -0.79637794    -1.01466376    -2.51161626
O     -1.32935816    -0.31442429    -3.60998302
C      0.13850714    -0.76809665    -0.14799637
O      1.44625317    -1.08979415    -0.60470539
C      2.15666639     0.02494463    -1.12740606
O      1.60677430     0.50896417    -2.35858257
C      2.20858756     1.72091748    -2.81806425
C      1.48954203     2.19445341    -4.07844192
O      0.10249850     2.32606491    -3.87692527
C      3.72006276     1.50573828    -3.08386149
O      3.93424725     0.64804066    -4.18723241
C      4.43293656     0.93130623    -1.83563833
O      5.75753710     0.57929981    -2.19692825
C      3.67114127    -0.29364019    -1.26698661
O      4.19851473    -0.64472540     0.01619992
C      4.99844882    -1.81919944     0.04531028
O      6.20126586    -1.76513428    -0.73341990
C      7.07306213    -2.87714222    -0.49250677
C      8.37078133    -2.69717647    -1.28302068
O      8.12213501    -2.59725916    -2.66093120
C      6.36578304    -4.21952171    -0.83905151
O      6.06947121    -4.34370264    -2.21775028
C      5.05167480    -4.35540015    -0.03566751
O      4.35286006    -5.50827808    -0.46597515
C      4.18897796    -3.09995077    -0.26723462
O      3.00860347    -3.16433591     0.50890407
C     -0.19350631     3.52468763    -3.27959151
O      0.62797154     4.36522520    -2.96522974
C     -1.63890350     3.75337577    -3.01155206
C     -2.20775054     5.01852422    -3.05330768
C     -3.56000232     5.17979953    -2.81976468
C     -4.35144424     4.08972051    -2.52503266
C     -3.79453531     2.81747944    -2.45087917
N     -4.50593339     1.68117943    -2.03724432
C     -5.87704123     1.57050810    -1.82697099
O     -6.66135331     2.47285637    -2.06686101
C     -6.33808690     0.29822530    -1.28318584
C     -7.62938039     0.00399009    -1.07346444
C     -8.11203114    -1.23573850    -0.48573239
C     -7.25480509    -2.13562215     0.15363630
C     -7.73613484    -3.29909028     0.69637741
C     -9.09526520    -3.62437391     0.63394540
O     -9.48903105    -4.83012612     1.20949627
C    -10.88018686    -5.12510838     1.11496760
C    -11.21785365    -6.44913036     1.71675771
C    -10.34144696    -7.42594787     1.85374946
C     -9.95365645    -2.71642260     0.00428853
C     -9.47161873    -1.55174018    -0.53887202
C     -2.44057626     2.67198838    -2.71336299
H     -0.05014113     4.44958349     0.24934651
H      1.35998476     4.75985924    -0.75569072
H      1.19991188     3.22750741     0.08920970
H      1.40135043     4.40580157     2.29628655
H      1.50224933     5.94414677     1.47943821
H      3.76321138     5.33675114     2.07773954
H      3.65031353     5.13934948     0.34976113
H      3.35733198     2.86110760     2.37390814
H      3.32906740     2.66701929     0.64995602
H      5.70992828     3.72386225     2.26451737
H      5.70326335     3.56161794     0.52867314
H      5.17733069     0.97208808     1.01797616
H      7.31336205     2.03544178     2.90019000
H      6.97353764    -0.67329096     1.52070034
H      7.83110704    -0.02685521     4.37011156
H      8.04092619    -2.55539025     2.66329571
H      9.89030512    -1.93745252     3.97154953
H      6.90856849    -3.89651667     4.37984195
H      6.71181861    -2.50026256     5.40039139
H      5.04332594    -3.16894282     2.95251896
H      5.06230364    -0.73187754     4.76640533
H      3.13951381    -1.64048116     2.51396118
H      3.24723654     0.83324684     4.29274486
H      0.60038419     1.12915848     0.78515388
H     -1.69212901    -0.51667646     1.95266235
H     -0.31510837     1.53847743     2.86924177
H     -1.65937690     1.86554942     0.02985353
H     -3.34122190    -1.02769952     0.27653740
H     -6.26014706    -0.26431487     2.12514266
H     -7.64036558     1.37055379     3.04524871
H     -5.41415144     3.89098307     1.93339327
H     -3.59627806     4.70597595     0.71990169
H     -2.60850076     3.64482559    -0.25656931
H     -1.71251854     3.10145154     2.06206217
H     -0.38976995     0.81917418    -1.49037726
H     -1.40077927    -1.91502881    -2.36250887
H      0.22123549    -1.33891444    -2.76628386
H     -0.80566254     0.50229012    -3.76965689
H     -0.29449733    -1.72474813     0.17488787
H      2.07117172     0.83379514    -0.39515484
H      2.06448571     2.46413010    -2.02125138
H      1.63651150     1.45187950    -4.87088326
H      1.88743921     3.15123393    -4.43789612
H      4.17747229     2.47294291    -3.34906083
H      4.87361864     0.37699368    -4.20429959
H      4.49936416     1.69995160    -1.05389966
H      6.01831263    -0.21739824    -1.68371514
H      3.79573438    -1.13976662    -1.95048000
H      5.32341252    -1.89277712     1.09009836
H      7.29731773    -2.86767380     0.58344409
H      9.05799498    -3.53463996    -1.11090946
H      8.88735528    -1.77935641    -0.98048196
H      7.36986854    -3.18828048    -2.86216202
H      7.03761550    -5.05623624    -0.58792656
H      5.45806843    -5.09466484    -2.34043624
H      5.26559381    -4.46276871     1.03740535
H      3.46462236    -5.52406649    -0.06960942
H      3.90173754    -3.09966891    -1.32750847
H      2.42075381    -2.42697106     0.22811770
H     -1.58039374     5.86464740    -3.27803023
H     -3.99791139     6.16371990    -2.86508534
H     -5.40449722     4.20151322    -2.33540670
H     -3.91282104     0.92362134    -1.71301734
H     -5.56946503    -0.41101016    -1.02951444
H     -8.37736018     0.73018660    -1.35416876
H     -6.20882610    -1.89982319     0.25436435
H     -7.07356485    -3.98837311     1.19068230
H    -11.15155587    -5.11940295     0.05296297
H    -11.42673618    -4.31986283     1.61977936
H    -12.24312199    -6.61077269     2.01628713
H     -9.31434377    -7.31180300     1.55727634
H    -10.61185405    -8.37683821     2.27603354
H    -11.00556723    -2.92936081    -0.05694676
H    -10.14662794    -0.86617600    -1.02289818
H     -2.01435428     1.68864243    -2.68942608

