%chk=cand11_PAPU-0138_conf04.chk
%nprocshared=8
%mem=16GB
#P B3LYP/6-31G(d) SCRF=(PCM,Solvent=Water) Pop=MK NoSymm

cand11_PAPU-0138 conformer 4 (Boltzmann pop=0.053)

0 1
C     -0.03781630     4.80010260     0.92396640
C      0.90787939     5.93969767     0.57733707
C      2.27237519     5.82998034     1.26495071
C      3.07042882     4.60150973     0.82953565
C      4.46448894     4.52685761     1.46076030
C      5.16947118     3.25328091     1.14401071
C      6.22692248     2.79687118     1.81396708
C      6.82347229     1.49962858     1.55691884
C      7.70190693     0.92069833     2.37784674
C      8.15913074    -0.50724361     2.25112992
O      9.53948710    -0.67628073     2.58124565
C      7.25860380    -1.46740988     3.05170698
C      5.81879325    -1.34997101     2.67695289
C      4.96928556    -0.50449805     3.26396737
C      3.63261547    -0.26742038     2.77294892
C      2.91261182     0.82182081     3.04905267
C      1.63447856     1.07032564     2.37396507
O      1.27722528     2.21927168     2.18127042
O      0.92982434    -0.04325299     1.97305241
C     -0.11051792     0.25719665     1.04180946
C     -1.48815293     0.51923940     1.70757696
O     -1.39998118     1.61470939     2.61885364
C     -2.58901710     0.77907061     0.62956665
C     -3.95347840     0.87106112     1.27426901
C     -4.54904792    -0.31165104     1.75867896
O     -3.97688456    -1.54466660     1.51400071
C     -5.73985048    -0.24226931     2.47117493
C     -6.37968541     0.96926283     2.68827531
O     -7.56659382     1.06838888     3.39218031
C     -5.79531433     2.12346364     2.16783421
C     -4.60433877     2.08797385     1.46666380
C     -4.02138401     3.37585793     0.96556427
O     -2.98379145     3.87929776     1.78047447
O     -2.56944655    -0.21096567    -0.42707791
C     -1.28865883    -0.35289760    -1.05681765
C     -1.38939393    -1.21462053    -2.30844605
O     -2.32050064    -0.66356675    -3.21902394
C     -0.28176788    -0.86430276    -0.00687128
O      0.92042933    -1.42592180    -0.53439163
C      1.93645494    -0.46806973    -0.78292008
O      1.75932121     0.32709654    -1.95991301
C      2.66906929     1.43803864    -2.01475206
C      2.45932095     2.20928735    -3.31776645
O      1.12095665     2.59591219    -3.48733610
C      4.15130387     0.97997586    -1.91253702
O      4.58266320     0.35314991    -3.10432052
C      4.38720050     0.02126671    -0.72006218
O      5.71789133    -0.46584053    -0.78438206
C      3.34542144    -1.11651623    -0.76082639
O      3.46179277    -1.99102473     0.36413816
C      4.10168671    -3.23541880     0.12242505
O      5.50882509    -3.16418378    -0.14352036
C      6.14094673    -4.44883434    -0.11149144
C      7.65007599    -4.27866319    -0.30532233
O      7.94429171    -3.64703553    -1.52324110
C      5.51631398    -5.39593084    -1.18036546
O      5.77673567    -4.97152617    -2.50542795
C      3.98330925    -5.50177814    -0.98751927
O      3.42149607    -6.23720343    -2.05834041
C      3.38018582    -4.08401913    -0.94914581
O      1.98500516    -4.14185705    -0.72459709
C      0.82132044     3.69927639    -2.73155858
O      1.63104161     4.37295401    -2.12290584
C     -0.63209539     3.99424790    -2.65463522
C     -1.12944161     5.26857028    -2.42466274
C     -2.48816458     5.46108252    -2.27743013
C     -3.35098127     4.38768971    -2.33447794
C     -2.87200071     3.10046804    -2.56204217
N     -3.68602522     1.95893508    -2.49537294
C     -4.96722877     1.89737839    -1.95206498
O     -5.62380804     2.88861739    -1.67916086
C     -5.48165721     0.56308493    -1.66127930
C     -6.67575094     0.35136703    -1.08816049
C     -7.18556134    -0.94207731    -0.66714923
C     -6.38318169    -2.08501867    -0.64608629
C     -6.88188741    -3.28678150    -0.21333277
C     -8.20703753    -3.41129538     0.21761825
O     -8.62599999    -4.67133489     0.63813817
C     -9.97538659    -4.74442291     1.09098706
C    -10.35237205    -6.12354103     1.52098499
C     -9.74681582    -7.20955351     1.07970349
C     -9.00856150    -2.26457574     0.19812597
C     -8.50649696    -1.06104706    -0.22951232
C     -1.50802955     2.93249144    -2.75423142
H      0.34802721     3.84139584     0.57509936
H     -0.17553304     4.71791032     2.00286417
H     -1.02544003     4.93371594     0.47760539
H      0.43912397     6.89866282     0.83578223
H      1.06244402     5.97523305    -0.50828384
H      2.13400742     5.80700430     2.35229547
H      2.86657915     6.73095710     1.06703029
H      2.51367452     3.69397525     1.08716659
H      3.15564590     4.58604376    -0.26351332
H      4.37633523     4.62648406     2.54890898
H      5.07381189     5.37760435     1.13420549
H      4.76848437     2.66920735     0.33276784
H      6.63088878     3.37784139     2.62738532
H      6.45819285     0.96716921     0.69139463
H      8.02523127     1.45536454     3.25403656
H      8.09509170    -0.78296047     1.18572539
H      9.70640679    -0.42647964     3.50809182
H      7.60898375    -2.49639128     2.91849269
H      7.37228241    -1.25349915     4.11822593
H      5.49153778    -1.88162903     1.79695411
H      5.29583650     0.09565877     4.09925774
H      3.23507559    -0.96923442     2.05748171
H      3.29210831     1.59685545     3.69364503
H      0.18479641     1.17819107     0.52088608
H     -1.76868155    -0.36073550     2.30275769
H     -0.46068619     1.90279125     2.62077705
H     -2.35535146     1.73184943     0.14291146
H     -3.31126723    -1.41404929     0.80713116
H     -6.17161065    -1.15475845     2.83511756
H     -7.82444877     0.20748824     3.76641699
H     -6.29121187     3.06216799     2.33539870
H     -4.79453533     4.15083280     0.90900932
H     -3.64460466     3.25626008    -0.05518529
H     -2.44416402     3.12688202     2.12184298
H     -0.97892763     0.65503898    -1.35802417
H     -1.71389359    -2.22274468    -2.02936401
H     -0.40506238    -1.28967517    -2.78707404
H     -2.37085597    -1.18641008    -4.03950319
H     -0.76285662    -1.70872850     0.50703619
H      1.90630166     0.23137773     0.05915436
H      2.41069229     2.08787091    -1.16580537
H      2.71472904     1.55623651    -4.16033442
H      3.09741878     3.09939921    -3.37317627
H      4.78753896     1.87072147    -1.78955444
H      5.45968567    -0.05025105    -2.95180688
H      4.27038622     0.55160433     0.23528164
H      5.71061447    -1.42438480    -0.56193668
H      3.48224200    -1.68636443    -1.68485461
H      4.00910528    -3.77039170     1.07851336
H      5.94663790    -4.86317531     0.88957925
H      8.16423361    -5.24717495    -0.27898553
H      8.07656289    -3.65672229     0.48992111
H      7.29413483    -3.96748301    -2.17915980
H      5.96713352    -6.39649226    -1.08022201
H      5.20003943    -5.47104432    -3.11444360
H      3.74727366    -6.02441272    -0.04842176
H      2.45093958    -6.17927653    -2.02477510
H      3.54438167    -3.64045425    -1.94002256
H      1.62989371    -3.22998816    -0.60971027
H     -0.44476529     6.09752141    -2.36843864
H     -2.87383126     6.45187318    -2.09979246
H     -4.40807574     4.52386762    -2.18966649
H     -3.22606853     1.07441994    -2.69634535
H     -4.81804631    -0.25719048    -1.87390763
H     -7.31215273     1.20097850    -0.89042617
H     -5.35133242    -2.01477869    -0.94198373
H     -6.25660927    -4.16236099    -0.18700216
H    -10.62194484    -4.42175185     0.26681884
H    -10.08791754    -4.03672070     1.92063343
H    -11.18694893    -6.22066319     2.19987539
H     -8.92007520    -7.15888069     0.39442724
H    -10.04584819    -8.19356994     1.39255561
H    -10.03078309    -2.32078798     0.52595907
H     -9.13549841    -0.18677070    -0.22922369
H     -1.11582929     1.95496769    -2.96793153

