%chk=cand11_PAPU-0138_conf01.chk
%nprocshared=8
%mem=16GB
#P B3LYP/6-31G(d) SCRF=(PCM,Solvent=Water) Pop=MK NoSymm

cand11_PAPU-0138 conformer 1 (Boltzmann pop=0.093)

0 1
C      0.17744072     4.29699920     0.53225495
C      1.15071993     5.42210000     0.22046920
C      2.61675692     5.05790649     0.48466509
C      2.94537046     4.88335761     1.96889571
C      4.44332330     4.68750334     2.24827473
C      4.98736309     3.37842040     1.78504071
C      6.23289204     2.97540709     2.03688111
C      6.74786397     1.67250245     1.65519296
C      7.72883037     1.05757688     2.31858545
C      8.17500254    -0.35555523     2.06587536
O      9.57598444    -0.53079129     2.30547256
C      7.36257409    -1.35635571     2.90865526
C      5.90134146    -1.29107520     2.62014315
C      5.04277414    -0.51219703     3.28112864
C      3.68118714    -0.31008365     2.84470411
C      2.92075593     0.72712389     3.20077679
C      1.63286700     0.97407849     2.54199790
O      1.25354617     2.12288268     2.40065289
O      0.95064310    -0.13547937     2.09185773
C     -0.07936783     0.17454291     1.15072575
C     -1.47184750     0.41342840     1.79353039
O     -1.41936563     1.48903326     2.73092236
C     -2.54567426     0.68928539     0.69349815
C     -3.92310029     0.79109074     1.30572342
C     -4.53884226    -0.38754422     1.77217064
O     -3.96764634    -1.62472355     1.54674800
C     -5.75391946    -0.30634535     2.43907738
C     -6.40017248     0.90681125     2.62374483
O     -7.62401031     0.92946713     3.26826893
C     -5.78853386     2.05987661     2.13145087
C     -4.57202226     2.01248993     1.47449876
C     -3.96786720     3.29026424     0.97065421
O     -2.91974830     3.78149253     1.78092126
O     -2.50907401    -0.29426990    -0.36778544
C     -1.21965601    -0.42821249    -0.98154324
C     -1.30123013    -1.30337193    -2.22600360
O     -2.24888783    -0.78977594    -3.14140633
C     -0.22269845    -0.93296601     0.08193791
O      0.99607690    -1.46752545    -0.43047905
C      1.96189117    -0.47602637    -0.73444567
O      1.72813100     0.26443761    -1.93657331
C      2.58434746     1.41326480    -2.06285146
C      2.33570916     2.07121694    -3.42066289
O      0.97885995     2.38850495    -3.60033423
C      4.09286320     1.05117449    -1.92699423
O      4.58300871     0.42795561    -3.09781907
C      4.37484935     0.13843458    -0.70812805
O      5.73132999    -0.27683994    -0.74119403
C      3.39889030    -1.05618805    -0.73064719
O      3.57976705    -1.93126064     0.38360754
C      4.25688821    -3.14868615     0.10901085
O      5.64890156    -3.01839089    -0.20969873
C      6.33267947    -4.27688173    -0.20436601
C      7.82703875    -4.04830974    -0.44699548
O      8.05758267    -3.40757779    -1.67376515
C      5.70913760    -5.24537166    -1.25464611
O      5.90572759    -4.80749606    -2.58631942
C      4.18933993    -5.41293984    -1.00802238
O      3.61840057    -6.16709732    -2.06078579
C      3.53189452    -4.02056594    -0.94112414
O      2.14948888    -4.13478662    -0.66693957
C      0.67556072     3.60232016    -3.03923250
O      1.49392087     4.40432378    -2.63106513
C     -0.77944562     3.85880179    -2.89933663
C     -1.29866578     5.13207354    -2.71675372
C     -2.65106532     5.30001979    -2.49847449
C     -3.48495206     4.20426302    -2.43844070
C     -2.98308286     2.91758492    -2.61254350
N     -3.76226213     1.76302645    -2.44408882
C     -5.03334982     1.70487614    -1.87819511
O     -5.69983200     2.69774182    -1.63682825
C     -5.52944385     0.37795307    -1.52735326
C     -6.71642293     0.17892096    -0.93484268
C     -7.21339630    -1.09781819    -0.45321842
C     -6.45764453    -2.26984923    -0.53014976
C     -6.94009858    -3.45228956    -0.03068861
C     -8.20179913    -3.52841553     0.56898541
O     -8.60794290    -4.77301302     1.04250992
C     -9.88987496    -4.81027588     1.66614953
C    -11.02286597    -4.66458193     0.70548637
C    -10.96275329    -5.06937988    -0.54898183
C     -8.95574873    -2.35278348     0.64673960
C     -8.47134087    -1.16910825     0.14992451
C     -1.62772740     2.77060465    -2.87084708
H     -0.85825001     4.58121514     0.33358415
H      0.39633801     3.41358567    -0.06885216
H      0.23734985     3.99663059     1.57829676
H      0.88953601     6.31565353     0.80126826
H      1.03585978     5.71854475    -0.83062881
H      3.27154468     5.83222027     0.06534434
H      2.87117640     4.14387297    -0.06317777
H      2.57897419     5.76075369     2.51604475
H      2.38631397     4.03416164     2.37720384
H      4.63524312     4.77897660     3.32478931
H      5.01330052     5.49834994     1.78000316
H      4.31645275     2.71795806     1.26066955
H      6.89686794     3.61887142     2.59263595
H      6.26939468     1.18278122     0.82117939
H      8.17167958     1.54770784     3.16880115
H      8.00340192    -0.58814997     1.00164153
H     10.10522698     0.08603217     1.77006930
H      7.74353112    -2.36892929     2.73888032
H      7.54379302    -1.14854006     3.96731179
H      5.55844391    -1.79626153     1.73101522
H      5.37999948     0.06627964     4.12711025
H      3.30037347    -0.97970885     2.09026413
H      3.28002539     1.47518065     3.88748282
H      0.21578192     1.10673413     0.65169053
H     -1.75998342    -0.48219282     2.36112930
H     -0.48209184     1.77820228     2.77679914
H     -2.29281344     1.64272936     0.21774125
H     -3.28541892    -1.50166854     0.85442688
H     -6.21696172    -1.20672218     2.79577690
H     -7.94945935     1.84139632     3.36508462
H     -6.27653681     3.00784245     2.26228088
H     -4.72828790     4.07766750     0.91258533
H     -3.59489528     3.16141349    -0.05081153
H     -2.41113625     3.02445307     2.15764073
H     -0.91339747     0.57983720    -1.28769742
H     -1.59754624    -2.31668078    -1.93473551
H     -0.31617539    -1.35757657    -2.70602481
H     -2.29194543    -1.32810192    -3.95266806
H     -0.69786870    -1.79163925     0.57751861
H      1.91939508     0.25113646     0.08370471
H      2.28615110     2.10726158    -1.26421841
H      2.61097030     1.36421843    -4.21183882
H      2.93860819     2.97794301    -3.55167592
H      4.66727839     1.98465074    -1.81093621
H      5.48368304     0.09132879    -2.92457933
H      4.21575920     0.69064075     0.22847456
H      5.76598793    -1.24384210    -0.55930691
H      3.55178303    -1.61361494    -1.66009711
H      4.21991481    -3.69293207     1.06365075
H      6.18854238    -4.70121588     0.80100580
H      8.37891923    -4.99617349    -0.43729860
H      8.25496962    -3.40951536     0.33398121
H      7.39932432    -3.75371188    -2.30813205
H      6.20272054    -6.22735278    -1.17446898
H      5.32802696    -5.32778284    -3.17670169
H      4.00873388    -5.94743856    -0.06334917
H      2.64812672    -6.14619216    -1.99268494
H      3.64234730    -3.56663907    -1.93475793
H      1.76474140    -3.23746328    -0.53545711
H     -0.63376687     5.97858178    -2.74582184
H     -3.05328081     6.29014659    -2.35775242
H     -4.53588258     4.32329781    -2.24307396
H     -3.28309091     0.88278515    -2.61634989
H     -4.85453079    -0.44195347    -1.70035545
H     -7.35430352     1.03196587    -0.75772803
H     -5.47515440    -2.24249575    -0.96696213
H     -6.35025275    -4.35100200    -0.08344943
H     -9.91128684    -4.05125663     2.45667980
H     -9.95378304    -5.78402818     2.16636744
H    -11.94295781    -4.24222540     1.08233897
H    -10.07484048    -5.51318776    -0.96160556
H    -11.79732034    -4.96804203    -1.21898216
H     -9.93136042    -2.37568502     1.09692071
H     -9.06274609    -0.27253521     0.22983110
H     -1.21990866     1.78909331    -3.03064481

