%chk=t10_C12_omega_OH_conf01.chk
%nprocshared=8
%mem=16GB
#P B3LYP/6-31G(d) SCRF=(PCM,Solvent=Water) Pop=MK NoSymm

t10_C12_omega_OH conformer 1 (Boltzmann pop=0.622)

0 1
O      2.75856460     1.16954318     0.71588667
C      2.15463322     1.62692363    -0.49691143
C      0.96720390     2.54674200    -0.11066320
O      1.45944781     3.74423611     0.48084343
C      0.02301910     2.88271690    -1.29725553
C     -1.21718565     3.58041432    -0.78968306
C     -2.11027322     2.84003477     0.00933781
O     -1.89315937     1.49540489     0.23600551
C     -3.21780148     3.46559345     0.56149556
C     -3.47630716     4.80753208     0.32628329
O     -4.61354881     5.37244598     0.87168558
C     -2.57624442     5.53068519    -0.45946419
C     -1.45978703     4.93283379    -1.01706723
C     -0.49054181     5.77611311    -1.79261114
O      0.66742113     6.11837052    -1.05543352
O     -0.31231489     1.70076934    -2.05353965
C      0.84083152     1.04687024    -2.59408942
C      0.37468912    -0.01064166    -3.58755059
O     -0.49423394     0.55494015    -4.53525517
C      1.73497036     0.48830492    -1.45993413
O      2.85884332    -0.22093983    -1.98559013
C      2.69005469    -1.62594124    -1.82255906
O      1.31865011    -2.02338477    -1.98248503
C      1.08695687    -3.42028078    -1.80317281
C     -0.35276812    -3.76723207    -2.19374654
O     -1.27001460    -2.87612062    -1.61745602
C     -2.56128884    -3.27742535    -1.84477730
O     -2.87422306    -4.34883255    -2.32904217
C     -3.59768337    -2.30040314    -1.43133419
C     -3.20928357    -1.05247276    -0.97566369
C     -4.14693551    -0.13201997    -0.57675779
C     -5.50585592    -0.42796241    -0.61514272
C     -6.49265985     0.56652370    -0.14476248
C     -7.62077276     0.17653912     0.57432961
C     -8.51500220     1.11337124     1.04616046
C     -8.29831049     2.45678878     0.81551904
C     -7.18613358     2.86211430     0.10665057
C     -6.29520370     1.92737903    -0.37351997
C     -5.89066877    -1.68390129    -1.08362100
C     -4.94939423    -2.60500472    -1.48721515
C      1.42939297    -3.82533661    -0.34740645
O      0.60088769    -3.19977578     0.60961737
C      2.92720291    -3.53609776    -0.08255274
O      3.28065289    -3.74889026     1.27566261
C      3.27975968    -2.07990313    -0.45890497
O      4.70066340    -1.96039390    -0.48897857
C      5.12443652    -0.65279129    -0.12634897
O      6.10747403    -0.05607541    -0.98562606
C      6.31157314     1.32658166    -0.67249681
C      7.29743435     1.92678929    -1.67812744
O      8.46802654     1.15245290    -1.77990332
C      6.80602096     1.49126489     0.79452374
O      8.09721670     0.93986542     0.98481095
C      5.83593930     0.81073154     1.78932024
O      6.37455532     0.87708244     3.09192975
C      5.61340734    -0.64841119     1.33861644
O      4.73291355    -1.34451886     2.20323288
C      1.94023115     0.33559870     1.44504158
O      0.98108229    -0.26778883     1.01105346
C      2.29856994     0.18811906     2.90135702
C      1.07018380    -0.03833611     3.77662522
C      0.05441319     1.10102326     3.69037424
C     -1.17729119     0.89349423     4.57564321
C     -1.98937477    -0.35647504     4.22625506
C     -2.65037869    -0.29902091     2.84749166
C     -3.34316694    -1.61184609     2.46383424
C     -2.36030408    -2.70047723     2.03079357
C     -3.04540002    -4.01546180     1.65954699
C     -2.07042501    -5.04766908     1.10497314
C     -2.76804103    -6.33601103     0.68648630
O     -3.80309831    -6.13004576    -0.25082888
H      2.91461412     2.23656755    -1.00234758
H      0.37593002     2.03268501     0.65710159
H      2.13624982     3.53073199     1.14866112
H      0.56420505     3.54298958    -1.98243936
H     -1.22328020     1.20351882    -0.41906178
H     -3.89237943     2.90185616     1.17968762
H     -4.65599183     6.32460300     0.67327831
H     -2.75039682     6.57738985    -0.62683793
H     -0.19099017     5.27786499    -2.72196118
H     -0.96233060     6.71723168    -2.09721644
H      0.96745232     5.34984829    -0.51478139
H      1.40904288     1.81154944    -3.14060180
H     -0.15805054    -0.81231366    -3.06399582
H      1.21907236    -0.46933896    -4.11398518
H     -1.10372727     1.16958807    -4.08090881
H      1.14573891    -0.24399519    -0.89468132
H      3.27078780    -2.09892551    -2.62659798
H      1.78311782    -3.93811915    -2.48157129
H     -0.48909932    -3.69403172    -3.27970514
H     -0.61167347    -4.78875006    -1.89349491
H     -2.15851446    -0.82144244    -0.92935887
H     -3.82883723     0.82300357    -0.19947945
H     -7.77904507    -0.86883999     0.77760741
H     -9.38211666     0.79648630     1.60284276
H     -8.99509377     3.18857120     1.19104926
H     -7.00738709     3.91160506    -0.06339530
H     -5.43631044     2.24640874    -0.93905428
H     -6.93820333    -1.92598439    -1.13882948
H     -5.24898020    -3.57242985    -1.85345049
H      1.24003087    -4.90316575    -0.22741824
H      0.76177363    -2.23127185     0.62946294
H      3.55850449    -4.19992718    -0.69274885
H      2.93779353    -4.60123584     1.59564558
H      2.90422525    -1.41954151     0.32935787
H      4.24383231     0.00049714    -0.20513586
H      5.33292675     1.81979765    -0.77384267
H      6.84336821     2.00045958    -2.67417674
H      7.58894312     2.94050846    -1.38250957
H      8.24299740     0.26134555    -2.10292240
H      6.88599434     2.56220742     1.04091572
H      8.56496643     0.97749053     0.12688961
H      4.86278160     1.32058694     1.81539795
H      7.31747272     0.62481036     3.04791111
H      6.58098620    -1.16840114     1.37329833
H      4.40187924    -2.17868135     1.79225650
H      3.00225117    -0.64012120     3.01284991
H      2.83233552     1.08536357     3.22529170
H      0.59430135    -0.97485033     3.46523907
H      1.36705380    -0.18917637     4.82173125
H      0.55020781     2.04330656     3.95252829
H     -0.25791796     1.22486461     2.64826596
H     -1.83108116     1.77247390     4.51580348
H     -0.85475174     0.84285384     5.62331558
H     -1.34709051    -1.24021906     4.29152999
H     -2.76566115    -0.52230620     4.98392666
H     -3.36627517     0.53218026     2.82867482
H     -1.90689955    -0.05234590     2.08120042
H     -4.06136433    -1.44012795     1.65321658
H     -3.94672108    -1.96939342     3.30598906
H     -1.62386995    -2.88344532     2.82060802
H     -1.77251252    -2.34342630     1.17685279
H     -3.83237457    -3.82661726     0.92025116
H     -3.56763987    -4.42496083     2.53191214
H     -1.54937580    -4.61585946     0.24404673
H     -1.28741744    -5.25483643     1.84391721
H     -3.22904884    -6.82184399     1.55524650
H     -2.05924794    -7.06121404     0.26460003
H     -3.48160359    -5.57320490    -0.99475461

