%chk=cand03_pyridylphenyl_conf01.chk
%nprocshared=8
%mem=16GB
#P B3LYP/6-31G(d) SCRF=(PCM,Solvent=Water) Pop=MK NoSymm

cand03_pyridylphenyl conformer 1 (Boltzmann pop=0.413)

0 1
C      0.17267572    -0.83223623     5.53717503
C      1.34223709    -0.50610213     4.61592069
C      1.38203425     0.98187206     4.27623679
C      2.49743811     1.33762755     3.29290608
C      3.88371301     1.39213947     3.95363343
C      4.93309689     1.60147001     2.91646616
C      5.63144382     2.72362561     2.74058038
C      6.51142222     2.92014693     1.61280526
C      7.01355158     4.10516999     1.26505197
C      7.77289767     4.43062856     0.00568018
O      9.06144516     4.95122906     0.31426790
C      7.90171137     3.28857707    -1.01386481
C      6.64306763     2.78616116    -1.62746032
C      5.39477693     3.09207813    -1.25246610
C      4.24026161     2.39267254    -1.73297552
C      3.09807924     2.33986999    -1.02117045
C      1.96226615     1.50709897    -1.37365589
O      1.82372576     0.87214768    -2.41084846
O      1.08705315     1.46437440    -0.36238647
C     -0.15496792     0.78412020    -0.52613804
C     -1.24037851     1.85329727    -0.76727583
O     -1.00620490     2.54428203    -1.95969752
C     -2.61746955     1.16579243    -0.72921055
C     -3.71598862     2.16219710    -1.00244067
C     -4.04925740     3.09752392    -0.00993060
O     -3.37783722     3.08088516     1.16389219
C     -5.05071053     4.03032965    -0.23504138
C     -5.72802769     4.06376137    -1.44774143
O     -6.70497439     4.98409565    -1.60256769
C     -5.37801360     3.16110674    -2.44351821
C     -4.38063751     2.21880714    -2.22778343
C     -4.02476939     1.29386730    -3.36968355
O     -2.72615969     1.53701193    -3.89694106
O     -2.82102838     0.58303146     0.54221202
C     -1.90789315    -0.44000990     0.85945342
C     -2.21315911    -0.83300185     2.31153520
O     -2.12499661     0.27343860     3.16582809
C     -0.43423290     0.00223261     0.75601503
O      0.44605451    -1.09926308     0.99179722
C      0.70894452    -2.04771603     0.00984789
O     -0.47909764    -2.69353038    -0.39512682
C     -0.24229377    -3.69926515    -1.37594492
C     -1.60244743    -4.21036772    -1.91406312
O     -2.69511311    -3.37300418    -1.56792072
C      0.55127862    -4.84836663    -0.74539801
O     -0.13707142    -5.48547214     0.30343469
C      1.89767380    -4.30856008    -0.22803216
O      2.58720911    -5.30057936     0.47886469
C      1.67700100    -3.06057795     0.65777785
O      2.91312839    -2.49221968     1.05339912
C      3.63511627    -1.69857506     0.15659349
O      3.42681440    -2.09069271    -1.16901841
C      4.14041262    -1.30673439    -2.11417455
C      3.72826984    -1.82430585    -3.49623039
O      2.34442403    -1.71276329    -3.71211264
C      5.65506662    -1.36148533    -1.88005093
O      6.13260762    -2.64800888    -2.15732212
C      5.94209502    -0.96154617    -0.42187856
O      7.31973593    -1.08534532    -0.19470102
C      5.12570795    -1.86606364     0.50561611
O      5.41390958    -1.52283301     1.83096557
C     -3.18601018    -3.48657784    -0.32715622
O     -2.71396776    -4.24286460     0.50223938
C     -4.34679014    -2.61520540    -0.08382847
C     -4.81346149    -1.73519727    -1.05947052
C     -5.84643153    -0.86991276    -0.77173425
C     -6.44958456    -0.88045490     0.48624659
C     -7.52277050     0.07271433     0.79657330
C     -8.65106645    -0.29947388     1.52561657
C     -9.62090678     0.65546920     1.78268325
N     -9.53606745     1.91514940     1.38252588
C     -8.46115776     2.27037544     0.69479722
C     -7.43635293     1.39764915     0.37133706
C     -6.01372229    -1.79603295     1.44320666
C     -4.96647968    -2.64986195     1.16574652
H     -0.76349013    -0.53717864     5.06916397
H      0.13640024    -1.89830054     5.74853756
H      0.27079948    -0.29706688     6.47905926
H      2.27551794    -0.80500598     5.09710518
H      1.24639121    -1.07334415     3.68584145
H      1.50369974     1.56452908     5.19218907
H      0.41768103     1.25034972     3.83893989
H      2.50544528     0.60138362     2.48360111
H      2.29050376     2.31320989     2.84541575
H      4.06865831     0.44757573     4.46778171
H      3.90195970     2.20005898     4.68737165
H      5.07305036     0.77044441     2.23725209
H      5.49530063     3.56335887     3.40970597
H      6.66058065     2.05021868     0.98918768
H      6.86073865     4.96157049     1.90946903
H      7.26483590     5.27449532    -0.48217667
H      9.55797502     4.28635545     0.81170119
H      8.40638603     2.43490336    -0.54833751
H      8.56506096     3.63945652    -1.81036877
H      6.79061765     2.04653868    -2.40499938
H      5.21640568     3.80280360    -0.46103748
H      4.32289287     1.82888499    -2.65343251
H      2.99814213     2.86888581    -0.08590170
H     -0.09509674     0.12618666    -1.40307791
H     -1.17664098     2.58781239     0.04366694
H     -1.44136499     2.06763433    -2.70106726
H     -2.61107283     0.36996702    -1.48914725
H     -3.70294893     3.79524554     1.73552660
H     -5.31857992     4.74856887     0.52402878
H     -7.08091281     4.94928265    -2.49576045
H     -5.88659133     3.18670608    -3.39504411
H     -4.76959445     1.38679445    -4.16519487
H     -4.01564083     0.25395758    -3.03591944
H     -2.75253645     2.34781530    -4.42491531
H     -2.05872105    -1.29972220     0.19439632
H     -3.21644790    -1.27396524     2.35156733
H     -1.47792720    -1.56466307     2.64895493
H     -2.67945056     0.97527337     2.78938779
H     -0.21567024     0.66670582     1.60137076
H      1.18261725    -1.60594786    -0.88694105
H      0.35438332    -3.25862099    -2.18871492
H     -1.79130638    -5.21344644    -1.51624629
H     -1.58994799    -4.22845854    -3.00252481
H      0.75909332    -5.61090396    -1.50765465
H     -0.91517668    -4.96284078     0.57546575
H      2.53048029    -4.03095271    -1.07378628
H      1.94213855    -5.78033311     1.02739507
H      1.22801868    -3.37138295     1.60836554
H      3.33315236    -0.63163352     0.27758938
H      3.82075606    -0.26095684    -2.00612680
H      4.29131838    -1.27388918    -4.25928745
H      3.96731531    -2.88651898    -3.56158881
H      2.08148233    -0.78691833    -3.57693462
H      6.13551016    -0.62934549    -2.54719848
H      7.06255336    -2.68578446    -1.87649456
H      5.62033986     0.08176925    -0.26317947
H      7.46767403    -1.15022594     0.76173512
H      5.37638291    -2.91776877     0.30206595
H      4.91458277    -2.10821886     2.41743139
H     -4.35205328    -1.74513918    -2.03432652
H     -6.20205543    -0.18567938    -1.52629879
H     -8.77976407    -1.31443989     1.86556599
H    -10.51381129     0.40482008     2.33904765
H     -8.42352276     3.30767618     0.39050326
H     -6.57293740     1.74151225    -0.17453508
H     -6.47515207    -1.81279329     2.41827430
H     -4.60666158    -3.35319031     1.90152944

