%chk=cand03_pyridylphenyl_conf02.chk
%nprocshared=8
%mem=16GB
#P B3LYP/6-31G(d) SCRF=(PCM,Solvent=Water) Pop=MK NoSymm

cand03_pyridylphenyl conformer 2 (Boltzmann pop=0.172)

0 1
C      0.19855568     0.03640263     7.79888312
C      1.34303274     0.25891695     6.81709660
C      1.02651156    -0.34072075     5.44846577
C      2.19203409    -0.27268421     4.46231867
C      2.62941037     1.15733195     4.12707032
C      3.59190920     1.15841348     2.98842637
C      4.79877393     1.72675360     2.99972912
C      5.67247623     1.72255000     1.85120490
C      6.82341685     2.38991253     1.76224209
C      7.66485643     2.46092713     0.51947192
O      7.47690373     1.39193310    -0.38508824
C      7.33627932     3.77387879    -0.25799085
C      5.89222261     3.72093331    -0.59212619
C      5.41421957     3.25030954    -1.75145422
C      4.04566173     2.88510843    -1.97983977
C      3.14249316     2.62764001    -1.01070851
C      1.85367201     2.04183461    -1.30643195
O      1.43891381     1.75315264    -2.42327919
O      1.16813307     1.77986546    -0.18492733
C     -0.05935218     1.06282206    -0.28495592
C     -1.24450620     2.01748650    -0.49300863
O     -1.12035199     2.79816606    -1.64801589
C     -2.54087516     1.16204137    -0.47114368
C     -3.73666886     2.03071671    -0.79402752
C     -4.33906411     2.80194432     0.21040369
O     -3.96246090     2.74254694     1.51070658
C     -5.37085663     3.68486079    -0.08275458
C     -5.81901942     3.82924456    -1.38412967
O     -6.80098639     4.68683318    -1.73507172
C     -5.22480380     3.06973538    -2.38432370
C     -4.19371035     2.18593271    -2.10691623
C     -3.63924445     1.44053306    -3.30407452
O     -4.61123813     0.62449984    -3.92868516
O     -2.65816032     0.56675268     0.81383928
C     -1.63157092    -0.35412379     1.11622454
C     -1.86791631    -0.84639225     2.55476528
O     -1.80354166     0.19267307     3.49115098
C     -0.23085092     0.28021207     1.02288529
O      0.80461465    -0.66366620     1.26743661
C      1.03494144    -1.70768581     0.38263594
O      0.05918655    -2.71660822     0.56968327
C      0.25510648    -3.80543052    -0.32566239
C     -0.97049381    -4.72107338    -0.23865178
O     -2.15142850    -3.95933203    -0.45608275
C      1.53926467    -4.53745603     0.07972375
O      1.45946589    -5.04308468     1.38714246
C      2.73208289    -3.56701765    -0.04920697
O      3.90725542    -4.17250641     0.41693934
C      2.44057014    -2.26167624     0.72337147
O      3.43330299    -1.25902848     0.59834949
C      3.94861622    -0.91271435    -0.66194067
O      3.00617785    -1.16513742    -1.66223429
C      3.42579601    -0.83112377    -2.97685347
C      2.28523648    -1.26950150    -3.90693455
O      1.03372286    -0.78226271    -3.49509127
C      4.74557354    -1.51779387    -3.34837633
O      4.53437788    -2.90351325    -3.43370636
C      5.81789079    -1.19776818    -2.29341924
O      6.97456234    -1.90522475    -2.65727253
C      5.29398988    -1.62613875    -0.91933969
O      6.23439140    -1.25607736     0.05992366
C     -2.90751360    -3.66929444     0.61230812
O     -2.69703892    -4.12891222     1.71803168
C     -3.99397306    -2.72144545     0.31200979
C     -4.10376924    -2.08547314    -0.92392992
C     -5.05934244    -1.10944503    -1.11766076
C     -5.91990898    -0.74089669    -0.08303048
C     -6.89405513     0.34211367    -0.26257271
C     -7.51831727     0.57336820    -1.48771135
C     -8.44222069     1.59978589    -1.58530756
N     -8.78031306     2.38222404    -0.57237959
C     -8.17797534     2.17341387     0.58791806
C     -7.23568551     1.18236653     0.79718891
C     -5.83835057    -1.41623597     1.13598505
C     -4.88811930    -2.39413381     1.33225286
H      0.02523489    -1.02708693     7.94819978
H      0.42507007     0.48696974     8.76220392
H     -0.71725866     0.47963124     7.41503315
H      1.52163695     1.33039608     6.71716019
H      2.25429589    -0.19822012     7.21041870
H      0.16002215     0.16582412     5.01803409
H      0.75246244    -1.39053177     5.58339450
H      3.04750213    -0.82096523     4.86473958
H      1.88451086    -0.75475023     3.53148060
H      3.07756856     1.63729992     4.99802695
H      1.73981271     1.72552637     3.83808670
H      3.25148532     0.63542572     2.10268280
H      5.14990023     2.25091602     3.87936793
H      5.32199873     1.14580403     1.00456235
H      7.18154747     2.98542127     2.58965358
H      8.72924574     2.50241453     0.80660487
H      7.27354362     0.57712841     0.09892325
H      7.95038185     3.78580368    -1.15699452
H      7.57639463     4.62488070     0.37653933
H      5.21142419     3.96781494     0.20936668
H      6.09581072     3.06566066    -2.57008608
H      3.74330572     2.70887511    -3.00539517
H      3.35567710     2.75736038     0.03808379
H     -0.00153117     0.38539903    -1.15010898
H     -1.28249654     2.73486502     0.33603814
H     -0.75798797     2.27250880    -2.37699291
H     -2.44401994     0.35445143    -1.20868593
H     -3.31255335     2.02541022     1.61320642
H     -5.79421095     4.25504209     0.72909148
H     -7.11860169     5.18696332    -0.96827694
H     -5.57149520     3.21397042    -3.39527851
H     -2.82979088     0.76145089    -3.04156782
H     -3.24499267     2.17382200    -4.01880378
H     -5.29316445     1.18767748    -4.31922210
H     -1.68544485    -1.20636101     0.42593813
H     -2.82767084    -1.36827482     2.59805257
H     -1.07084783    -1.54899428     2.80190608
H     -2.62153645     0.70903369     3.45933893
H     -0.10944721     0.98280966     1.85650176
H      1.01368209    -1.38645853    -0.67133002
H      0.35522391    -3.41191012    -1.34797851
H     -1.02415618    -5.18959759     0.74877482
H     -0.92230283    -5.47537350    -1.02384593
H      1.71578667    -5.39959263    -0.57005627
H      0.99241635    -4.40296178     1.94533014
H      2.88590463    -3.33371561    -1.10668399
H      3.68243600    -4.72603979     1.18541164
H      2.44737054    -2.46460895     1.80116064
H      4.15372581     0.17531179    -0.60484629
H      3.56616012     0.25938295    -3.03295752
H      2.51932831    -0.93932805    -4.92596346
H      2.21332543    -2.35825998    -3.88623142
H      1.10907096     0.18251944    -3.38099424
H      5.07970311    -1.12714835    -4.32098504
H      5.40298966    -3.32454701    -3.54586630
H      6.01708539    -0.11577706    -2.27107733
H      7.64175836    -1.79350113    -1.96453496
H      5.13908479    -2.71139412    -0.91179371
H      5.93496518    -1.59870387     0.91438424
H     -3.42697152    -2.35209444    -1.72115000
H     -5.11468645    -0.60749725    -2.07070783
H     -7.30367440    -0.04893889    -2.34092831
H     -8.94661509     1.80861134    -2.51877297
H     -8.47387530     2.83462538     1.39119036
H     -6.76084162     1.08288519     1.75943017
H     -6.52945981    -1.17817451     1.92915320
H     -4.81074516    -2.91839921     2.27315638

