%chk=t01_C8_omega_sulfonate_conf04.chk
%nprocshared=8
%mem=16GB
#P B3LYP/6-31G(d) SCRF=(PCM,Solvent=Water) Pop=MK NoSymm

t01_C8_omega_sulfonate conformer 4 (Boltzmann pop=0.144)

0 1
O      1.53081788     0.08661664     1.98269003
C      1.25667559    -0.96517133     1.05860710
C     -0.22192082    -1.41445322     1.20721897
O     -1.08295711    -0.39663311     0.69411123
C     -0.50508486    -2.77245813     0.50984177
C     -1.94476755    -3.18150230     0.72445301
C     -2.31180874    -3.84165427     1.91592784
O     -1.37623802    -4.25998301     2.83745874
C     -3.65413949    -4.06613642     2.18955815
C     -4.64840128    -3.63317158     1.32792310
O     -5.97863472    -3.79257907     1.67521887
C     -4.26720596    -3.00310833     0.14367754
C     -2.94030332    -2.77236004    -0.16440717
C     -2.58312602    -2.01893695    -1.41328273
O     -3.64545297    -1.80830177    -2.32047568
O      0.44153741    -3.77786352     0.92453220
C      1.78010218    -3.42582301     0.56762758
C      2.71554009    -4.60235345     0.81998022
O      2.31366391    -5.74126580     0.09956370
C      2.23695589    -2.13866609     1.29628294
O      3.56770886    -1.80595520     0.93008491
C      3.65640874    -1.22610753    -0.36477011
O      2.65417583    -1.64462050    -1.29685013
C      2.66594325    -0.84572275    -2.48123734
C      1.46388399    -1.17558490    -3.37034506
O      0.25639483    -0.66606946    -2.84822728
C      0.26371484     0.70267288    -2.90492735
O      1.20775578     1.36791417    -3.29168729
C     -0.98057222     1.40009900    -2.47807728
C     -2.22901995     0.92436630    -2.84685983
C     -3.36730875     1.61982496    -2.50954360
C     -3.29184531     2.81638968    -1.79806352
C     -4.50998401     3.58726963    -1.47017378
C     -4.50339266     4.98096991    -1.47781695
C     -5.63793939     5.69556045    -1.15832070
C     -6.80188770     5.03526186    -0.82200537
C     -6.82815978     3.65667509    -0.81406873
C     -5.69849100     2.94178208    -1.14222433
C     -2.03232858     3.27661184    -1.41794473
C     -0.89650420     2.58024093    -1.75731955
C      4.01537137    -0.99688274    -3.22958151
O      4.17930896    -2.30470384    -3.73726061
C      5.20426895    -0.64880109    -2.30121853
O      6.40751195    -1.00768576    -2.95416053
C      5.07347838    -1.40933369    -0.96518744
O      6.11080725    -1.02803846    -0.07556056
C      5.76109948     0.11449533     0.68426972
O      5.14725600     1.17751424    -0.05607201
C      4.65531290     2.22124805     0.80037966
C      3.95044616     3.30587143    -0.01224592
O      3.43362891     4.31934268     0.83169647
C      5.80528674     2.84781304     1.63270639
O      6.70816829     3.55827480     0.81204820
C      6.57759268     1.76584165     2.42287698
O      7.72503297     2.34752846     3.01137453
C      6.98981611     0.63370742     1.46204423
O      7.63462014    -0.41353339     2.16422251
C      1.24752486     1.32929291     1.48707846
O      0.90163762     1.56627089     0.35010331
C      1.33513821     2.44855667     2.48747073
C     -0.02542218     3.11286147     2.69550688
C     -1.13550820     2.11546208     3.11309312
C     -2.31755001     2.10577457     2.14138553
C     -3.35776200     1.02488775     2.44199546
C     -4.42313778     0.93664636     1.34884589
C     -5.49586059    -0.10529473     1.59924719
S     -6.57616988    -0.25001826     0.13359226
O     -7.55514976     0.87266908     0.24184431
O     -5.64082504    -0.24529619    -1.03207047
O     -7.32992419    -1.64436422     0.28230970
H      1.40860976    -0.56081754     0.05044989
H     -0.44800766    -1.51512805     2.27750880
H     -0.50697116     0.37086263     0.47432909
H     -0.32692611    -2.63494124    -0.56329175
H     -0.49823338    -4.18629043     2.41812197
H     -3.92777269    -4.55530171     3.10536924
H     -6.52874131    -3.16759779     1.15971616
H     -5.03434566    -2.67316397    -0.53111694
H     -1.81677038    -2.56321447    -1.97621181
H     -2.15872399    -1.04572975    -1.14110481
H     -4.35608330    -1.27309415    -1.90438084
H      1.76424270    -3.22548121    -0.51160347
H      3.73991462    -4.35754402     0.51621434
H      2.74180690    -4.84909767     1.88706735
H      1.35497544    -5.87916551     0.19409009
H      2.27083301    -2.33690445     2.37636324
H      3.48985117    -0.14972186    -0.22003298
H      2.55640923     0.19492087    -2.14082455
H      1.59165187    -0.75452954    -4.37513158
H      1.36479339    -2.26203675    -3.47234228
H     -2.29332230     0.01037669    -3.41396960
H     -4.33129736     1.24773871    -2.81197109
H     -3.60229603     5.50118060    -1.75488504
H     -5.61596853     6.77343845    -1.17112379
H     -7.68712926     5.59463393    -0.56592153
H     -7.72703984     3.12962887    -0.53582043
H     -5.72797839     1.86552480    -1.12863076
H     -1.95277267     4.18716129    -0.84924626
H      0.07787919     2.93530025    -1.46500108
H      4.02187736    -0.31998372    -4.09955297
H      5.10590561    -2.42528896    -4.02352345
H      5.23723073     0.43243005    -2.09919578
H      7.16154947    -0.90962334    -2.34887103
H      5.22499843    -2.47883021    -1.16309120
H      5.01973476    -0.23590227     1.41752966
H      3.92878083     1.75114653     1.47887292
H      4.67966560     3.74138255    -0.70622053
H      3.13261744     2.87304651    -0.60166032
H      3.19791508     5.12314970     0.33689128
H      5.37654481     3.58644224     2.33017685
H      7.50480033     3.78272556     1.33221221
H      5.94960275     1.35175139     3.22607648
H      8.28926740     1.65606095     3.39630141
H      7.71052164     1.04340800     0.74086128
H      7.67266334    -1.20914252     1.60434779
H      2.07606217     3.17812232     2.14726777
H      1.70646082     2.04173589     3.43301744
H     -0.32036537     3.59766216     1.75642959
H      0.05633835     3.93098269     3.42347031
H     -1.49108256     2.32430611     4.12959469
H     -0.71123402     1.10549446     3.16776314
H     -1.94076695     1.96121575     1.12220195
H     -2.79753520     3.09146873     2.12887389
H     -3.82761027     1.21372943     3.41373178
H     -2.85938999     0.05337172     2.54086695
H     -4.89131880     1.91994851     1.21529129
H     -3.93017723     0.72067564     0.39175313
H     -6.10730039     0.15455833     2.46398121
H     -5.05244568    -1.07929094     1.80359002
H     -8.23396131    -1.57344088    -0.04138082

