%chk=t01_C8_omega_sulfonate_conf01.chk
%nprocshared=8
%mem=16GB
#P B3LYP/6-31G(d) SCRF=(PCM,Solvent=Water) Pop=MK NoSymm

t01_C8_omega_sulfonate conformer 1 (Boltzmann pop=0.173)

0 1
O      1.29211756     0.15042495     1.75626789
C      1.08792755    -0.92575819     0.83811554
C     -0.38229555    -1.41921019     0.95034395
O     -1.24286281    -0.48505886     0.29828389
C     -0.62654379    -2.84642343     0.37881629
C     -2.03715518    -3.27808236     0.72202819
C     -2.31340696    -3.83496127     1.98936954
O     -1.30809119    -4.19761593     2.85857227
C     -3.63168140    -4.00349248     2.39371742
C     -4.68831162    -3.60534694     1.59070227
O     -5.99033671    -3.67684299     2.05693533
C     -4.39903505    -3.09058136     0.32747331
C     -3.10053094    -2.93216922    -0.11341814
C     -2.83654007    -2.30025566    -1.44707492
O     -3.96540011    -2.12597773    -2.27806483
O      0.37942810    -3.78464619     0.80989795
C      1.69263740    -3.37165403     0.42557001
C      2.68837440    -4.50063693     0.66283017
O      2.32988839    -5.66101450    -0.04627529
C      2.08561426    -2.06506222     1.15081973
O      3.43276293    -1.71406089     0.87548867
C      3.62706049    -1.17065336    -0.42405969
O      2.70305756    -1.59860577    -1.42969904
C      2.83943875    -0.82906966    -2.62886139
C      1.71840446    -1.15656325    -3.61716089
O      0.48146931    -0.63461166    -3.19048064
C      0.49272770     0.73325930    -3.27002577
O      1.43249133     1.38996002    -3.67901806
C     -0.73451488     1.42210398    -2.79593582
C     -1.93339943     0.73631889    -2.70115097
C     -3.04380748     1.34255547    -2.16312060
C     -2.99910550     2.66690192    -1.73052389
C     -4.18044172     3.29923222    -1.10574293
C     -4.03569694     4.23993062    -0.08717732
C     -5.13764475     4.79612529     0.52498266
C     -6.40750398     4.42488714     0.13505863
C     -6.57194403     3.49853012    -0.87326012
C     -5.47205591     2.94277080    -1.48895488
C     -1.79927794     3.36265998    -1.87268688
C     -0.68427599     2.74665568    -2.39221182
C      4.24658225    -1.01998204    -3.25047515
O      4.43464102    -2.34385172    -3.70545657
C      5.35287440    -0.66252020    -2.22913464
O      6.60442447    -1.05471217    -2.76191871
C      5.08913655    -1.38850623    -0.89454354
O      6.05308758    -1.00643576     0.07396849
C      5.65186598     0.14972468     0.78509493
O      5.11640859     1.20914118    -0.01793631
C      4.55281884     2.25854377     0.78492862
C      3.92181830     3.33782982    -0.09239458
O      3.31477235     4.34757726     0.69500456
C      5.62706405     2.88817461     1.71115643
O      6.60174735     3.58878589     0.96761077
C      6.32233902     1.81020413     2.57554542
O      7.41685284     2.39321264     3.25659249
C      6.81029529     0.66659644     1.66475636
O      7.37730135    -0.38240325     2.42833844
C      0.95695978     1.38020279     1.25847817
O      0.58584525     1.59919333     0.12613145
C      1.08363239     2.51467543     2.23995053
C     -0.09576043     3.49009304     2.21380391
C     -1.40704082     2.95476159     2.80458374
C     -2.07230266     1.86653731     1.95906838
C     -3.53580682     1.60259640     2.32613689
C     -4.24769843     0.69561577     1.31696732
C     -5.74978028     0.60381143     1.53041376
S     -6.60382649    -0.19178649     0.12274617
O     -5.64605441    -0.21651926    -1.02146174
O     -7.10529037    -1.50615862     0.61530462
O     -7.83949146     0.78526931    -0.11028475
H      1.27363225    -0.53903218    -0.17182811
H     -0.65904846    -1.42157064     2.01372503
H     -0.70118555     0.31534719     0.11322645
H     -0.52112364    -2.79113974    -0.71089779
H     -0.46689347    -4.14999107     2.36604934
H     -3.83400748    -4.40660092     3.36806547
H     -6.53788932    -3.04304864     1.55302469
H     -5.21328692    -2.78570658    -0.30256572
H     -2.13323845    -2.91382791    -2.02140553
H     -2.37055177    -1.32344777    -1.28271923
H     -4.59413199    -1.48798813    -1.87666339
H      1.64795697    -3.16561629    -0.65194225
H      3.69347195    -4.20697214     0.33936447
H      2.74641352    -4.74149439     1.73004956
H      1.38162359    -5.84709315     0.06840168
H      2.05211725    -2.24671859     2.23409506
H      3.46107229    -0.08970661    -0.32012781
H      2.72056552     0.22209167    -2.32526450
H      1.93059509    -0.74157417    -4.61011602
H      1.61753209    -2.24294550    -3.71890674
H     -1.97567745    -0.27974201    -3.05532778
H     -3.94763107     0.77468059    -2.02346557
H     -3.04787876     4.52058912     0.23560490
H     -5.00755056     5.52191085     1.31152841
H     -7.26944656     4.85643384     0.61776804
H     -7.56322785     3.19429329    -1.16910846
H     -5.60979741     2.21719328    -2.27260081
H     -1.74779474     4.39443674    -1.57024727
H      0.25145477     3.27442845    -2.47228132
H      4.34101624    -0.36869375    -4.13480974
H      5.38175395    -2.48521381    -3.90014655
H      5.38398551     0.42292073    -2.05038849
H      7.30123131    -0.96156994    -2.09071781
H      5.23727345    -2.46443905    -1.05678973
H      4.84518598    -0.18431912     1.45422654
H      3.77032875     1.79071627     1.39940426
H      4.71219486     3.77776607    -0.71276916
H      3.16940865     2.89888943    -0.75898575
H      3.15144565     5.15917496     0.18363933
H      5.14167701     3.63422914     2.36191382
H      7.35263434     3.81074238     1.55273856
H      5.62444805     1.40667331     3.32464954
H      7.94122697     1.70456877     3.69889373
H      7.59738453     1.06327608     1.00869413
H      7.43941832    -1.18600684     1.88133823
H      2.01126444     3.05089170     2.01667904
H      1.20691164     2.09822476     3.24422524
H     -0.26906146     3.80000826     1.17648256
H      0.18816493     4.40770097     2.74716922
H     -2.11517915     3.78521912     2.91956480
H     -1.23633945     2.58428194     3.82185192
H     -1.49966586     0.93630682     2.03384263
H     -2.01681245     2.15403265     0.90268807
H     -4.06928613     2.55852891     2.38197002
H     -3.60442312     1.17687750     3.33349599
H     -4.06003987     1.07750169     0.30737956
H     -3.79709966    -0.30463429     1.32278766
H     -6.18199029     1.59885635     1.64441217
H     -5.98458162     0.05348317     2.44203183
H     -8.66726898     0.29513483    -0.16728559

