%chk=t01_C8_omega_sulfonate_conf02.chk
%nprocshared=8
%mem=16GB
#P B3LYP/6-31G(d) SCRF=(PCM,Solvent=Water) Pop=MK NoSymm

t01_C8_omega_sulfonate conformer 2 (Boltzmann pop=0.163)

0 1
O      1.41786832    -0.39546643     2.22438942
C      1.20510694    -1.35298047     1.18819835
C     -0.27141516    -1.82362504     1.22030980
O     -1.11003965    -0.77069103     0.74275622
C     -0.50841824    -3.11934564     0.39928070
C     -1.96179911    -3.52351891     0.51242218
C     -2.39344859    -4.29619013     1.61208106
O     -1.50491139    -4.87824770     2.48901248
C     -3.75266230    -4.45852123     1.84591136
C     -4.70006326    -3.84058686     1.04593500
O     -6.04568946    -3.91502156     1.37179190
C     -4.25769531    -3.10771513    -0.05510997
C     -2.91432746    -2.95332492    -0.33589127
C     -2.48976704    -2.10707220    -1.50259142
O     -3.52230972    -1.73874245    -2.39337182
O      0.42655354    -4.15058107     0.77727369
C      1.77764270    -3.76102180     0.51200691
C      2.71403267    -4.94707196     0.70988669
O      2.36407964    -6.02351936    -0.12457235
C      2.19437058    -2.53009573     1.35647126
O      3.52858988    -2.14035365     1.05869165
C      3.63978586    -1.45035726    -0.17944461
O      2.71978624    -1.88028560    -1.18650237
C      2.78515989    -1.03851070    -2.33436717
C      1.57425085    -1.22929881    -3.24882309
O      0.41056065    -0.63865271    -2.70945347
C      0.54137025     0.72622606    -2.66898188
O      1.54984313     1.32867770    -2.98906323
C     -0.65072520     1.49553835    -2.21834686
C     -1.92547372     1.07169273    -2.55739780
C     -3.02784705     1.80852853    -2.19234750
C     -2.89289477     2.99464285    -1.47227291
C     -4.07591875     3.79557715    -1.09187526
C     -3.99830840     5.18158043    -0.96398869
C     -5.10122203     5.92271676    -0.59760979
C     -6.30682023     5.29835385    -0.35300289
C     -6.40563847     3.92942865    -0.48271330
C     -5.30577715     3.18839451    -0.85137560
C     -1.60643562     3.40530070    -1.12616075
C     -0.50485746     2.67141503    -1.49829979
C      4.14476393    -1.23625229    -3.04315626
O      4.31139746    -2.56955846    -3.47737361
C      5.29827983    -0.84562741    -2.08749364
O      6.51922432    -1.27841288    -2.65974880
C      5.11422185    -1.46772322    -0.67897062
O      5.97299658    -0.79608742     0.23116083
C      5.40965691     0.42767561     0.68202613
O      4.70153132     1.18195177    -0.31247143
C      3.97831002     2.29648350     0.23740375
C      3.20092955     3.00663893    -0.87125399
O      2.40444546     4.07572658    -0.40140740
C      4.93065361     3.27621802     0.97468521
O      5.73533649     3.99169666     0.06214402
C      5.82804242     2.54104193     2.00191773
O      6.82166547     3.43016846     2.47525210
C      6.48611654     1.31270839     1.34341572
O      7.24540181     0.57899047     2.28730231
C      1.15197912     0.88699135     1.83452702
O      0.84646510     1.21743046     0.70898022
C      1.27374819     1.92009854     2.92417511
C      0.31739275     3.10414271     2.74969922
C     -1.14226230     2.81193446     3.12121019
C     -1.81218015     1.76113651     2.23619647
C     -3.32070549     1.63048267     2.45631530
C     -3.99438247     0.71505522     1.42933994
C     -5.50901346     0.65564562     1.57174938
S     -6.32446461    -0.05089260     0.09557835
O     -5.31199130    -0.03716188    -1.00082990
O     -6.89947773    -1.36987716     0.48033122
O     -7.49984112     0.99601818    -0.15092440
H      1.39513464    -0.85122036     0.23163040
H     -0.55485427    -2.01039626     2.26547496
H     -0.52608288     0.00936129     0.60464855
H     -0.28124594    -2.89420960    -0.64962293
H     -0.61099908    -4.76765924     2.11437853
H     -4.07417159    -5.02828911     2.69728820
H     -6.49840833    -3.12141974     1.02348723
H     -4.98899723    -2.63535864    -0.68358579
H     -1.75092992    -2.64443474    -2.10758145
H     -2.00941371    -1.19373115    -1.13463529
H     -4.17392997    -1.15878851    -1.94240018
H      1.80537103    -3.47818491    -0.54802102
H      3.74865451    -4.66807803     0.47914021
H      2.69100562    -5.28461373     1.75188703
H      1.40365398    -6.17743825    -0.09217547
H      2.20202809    -2.81569307     2.41738601
H      3.36297086    -0.41104324     0.03812638
H      2.74076444    -0.01143605    -1.94330022
H      1.74738586    -0.77517529    -4.23185679
H      1.38325218    -2.29735438    -3.39995881
H     -2.03832356     0.16289976    -3.12494056
H     -4.00988763     1.47088973    -2.47568899
H     -3.06780333     5.68002906    -1.17522760
H     -5.02238727     6.99396771    -0.50455696
H     -7.16872597     5.87837615    -0.06519600
H     -7.34268825     3.43150396    -0.29283319
H     -5.39636091     2.12015366    -0.94620442
H     -1.47450699     4.30491976    -0.55002333
H      0.48299170     3.00137049    -1.22120400
H      4.18024620    -0.60416753    -3.94535633
H      5.25088813    -2.72251297    -3.69919042
H      5.35477392     0.24709481    -1.98177464
H      7.26155763    -1.10710194    -2.05607108
H      5.45327068    -2.51072409    -0.70916756
H      4.68287468     0.14895399     1.45908584
H      3.25930622     1.87558866     0.95267299
H      3.89447841     3.36830236    -1.63976295
H      2.52790331     2.29632043    -1.36289603
H      2.94576404     4.86846956    -0.22484437
H      4.32528195     4.02631061     1.50759448
H      6.45701527     4.43588631     0.54923149
H      5.22940793     2.20837348     2.86321361
H      7.46919230     2.94956634     3.01796053
H      7.17497907     1.66809178     0.56461642
H      7.43691894    -0.30775382     1.93371910
H      2.31121240     2.26794718     2.94921021
H      1.10099056     1.43581195     3.88998231
H      0.36891788     3.44023040     1.70671296
H      0.67613607     3.95331737     3.34704858
H     -1.72512470     3.73999825     3.06751092
H     -1.20134577     2.49778128     4.16964512
H     -1.33707568     0.78776537     2.39864490
H     -1.62169204     2.00580834     1.18506601
H     -3.78035564     2.62446006     2.40635092
H     -3.52332909     1.26991893     3.47105704
H     -3.73980407     1.06759671     0.42258605
H     -3.56651239    -0.29397626     1.48268911
H     -5.91870621     1.65676737     1.71201432
H     -5.80119891     0.07505416     2.44743541
H     -8.32920639     0.54510901    -0.34396689

