%chk=t01_C8_omega_sulfonate_conf03.chk
%nprocshared=8
%mem=16GB
#P B3LYP/6-31G(d) SCRF=(PCM,Solvent=Water) Pop=MK NoSymm

t01_C8_omega_sulfonate conformer 3 (Boltzmann pop=0.161)

0 1
O      1.36786075     0.05360640     1.96399233
C      1.18412588    -0.99001676     1.00600341
C     -0.28417929    -1.49102999     1.07489409
O     -1.13401888    -0.53005080     0.44731750
C     -0.50141711    -2.89010599     0.43412270
C     -1.92748317    -3.33390597     0.67507403
C     -2.26710287    -3.97713806     1.88476408
O     -1.31361095    -4.37930719     2.79442957
C     -3.60273105    -4.19611565     2.19429614
C     -4.61705991    -3.76199061     1.35712479
O     -5.94137818    -3.89936499     1.74145493
C     -4.26375456    -3.14961219     0.15472547
C     -2.94455285    -2.93861677    -0.19610419
C     -2.61637665    -2.22472865    -1.47655419
O     -3.71051420    -1.98934155    -2.33805003
O      0.48072041    -3.84197406     0.88885935
C      1.80792642    -3.43760224     0.54837921
C      2.78778448    -4.57233428     0.82271371
O      2.45248918    -5.72790021     0.09472481
C      2.19953891    -2.12769038     1.27388456
O      3.52510427    -1.75199196     0.93090910
C      3.62636689    -1.19742344    -0.37528292
O      2.63391896    -1.62973385    -1.31195271
C      2.65702164    -0.84564478    -2.50630193
C      1.46283470    -1.18439979    -3.40315850
O      0.25348799    -0.66355129    -2.89691823
C      0.26951535     0.70444916    -2.96468955
O      1.21227591     1.35937290    -3.37155601
C     -0.95705389     1.41498519    -2.51161217
C     -2.22034568     0.90756382    -2.76988063
C     -3.34268131     1.60759887    -2.39044694
C     -3.23849977     2.83663091    -1.73932010
C     -4.44045800     3.60423017    -1.34933284
C     -4.42466606     4.99790739    -1.31505327
C     -5.54098528     5.71092295    -0.93393091
C     -6.69875292     5.04968464    -0.58011955
C     -6.73648767     3.67213480    -0.61657902
C     -5.62385472     2.95892626    -1.00118537
C     -1.96207143     3.32841484    -1.47167621
C     -0.84249621     2.63104425    -1.85848715
C      4.01430449    -1.00328450    -3.23855194
O      4.18846386    -2.31756362    -3.72572523
C      5.19121745    -0.63896838    -2.30117402
O      6.40322795    -0.99696466    -2.93809085
C      5.04940390    -1.38809174    -0.95998636
O      6.08167791    -1.00069873    -0.06632782
C      5.71841118     0.13231732     0.70105826
O      5.09161174     1.19418197    -0.03006117
C      4.57708655     2.21581176     0.83961578
C      3.85333856     3.29841395     0.04124693
O      3.31597874     4.29259591     0.89717586
C      5.71330835     2.85240901     1.68357449
O      6.60321587     3.59294067     0.87536551
C      6.50575163     1.77505218     2.46015271
O      7.64286399     2.37043666     3.05502363
C      6.93792922     0.66118161     1.48657596
O      7.59775873    -0.38399486     2.17802018
C      1.06012362     1.29836983     1.48705833
O      0.72919553     1.54634364     0.34815928
C      1.16354417     2.40817679     2.49912502
C     -0.00012299     3.40195732     2.44972024
C     -1.34289984     2.87259795     2.97132663
C     -1.98037777     1.80868684     2.07634708
C     -3.44698172     1.51374378     2.40209975
C     -4.12076878     0.61914656     1.35633576
C     -5.61466393     0.43525556     1.58499794
S     -6.47054647    -0.27145772     0.13153635
O     -5.49663278    -0.24139961    -0.99908015
O     -7.01614717    -1.59972778     0.52840827
O     -7.67443307     0.75260370    -0.07090618
H      1.37308244    -0.55879570     0.01575705
H     -0.58034789    -1.54199173     2.13175181
H     -0.58170055     0.26768342     0.28160286
H     -0.33291257    -2.79118140    -0.64487161
H     -0.44240679    -4.28594912     2.36576818
H     -3.85475240    -4.67015395     3.12412443
H     -6.47309687    -3.21569492     1.28874665
H     -5.04629842    -2.82030079    -0.50267148
H     -1.89561619    -2.80963643    -2.05891438
H     -2.14742610    -1.26153654    -1.24616937
H     -4.36187953    -1.39391533    -1.90752018
H      1.79959322    -3.24466406    -0.53228632
H      3.80693090    -4.28272444     0.54173011
H      2.80078234    -4.81754043     1.89039191
H      1.49941523    -5.90940924     0.17018340
H      2.21766720    -2.31496556     2.35624176
H      3.45797045    -0.11888522    -0.25132672
H      2.54439959     0.19896286    -2.17950013
H      1.60078373    -0.77698204    -4.41216753
H      1.36100919    -2.27178887    -3.49133372
H     -2.30975059    -0.03410264    -3.28553518
H     -4.31786859     1.20690812    -2.60754576
H     -3.53235008     5.52285489    -1.61029151
H     -5.51012131     6.78848660    -0.91413259
H     -7.57102857     5.60733469    -0.27964278
H     -7.63505611     3.14547076    -0.33954465
H     -5.66773996     1.88398872    -1.02652122
H     -1.85347475     4.26156891    -0.94640297
H      0.14395765     3.01014865    -1.64865295
H      4.02836129    -0.33848499    -4.11770528
H      5.11856998    -2.43831763    -4.00050413
H      5.21502568     0.44423539    -2.10805819
H      7.14992527    -0.89156143    -2.32493923
H      5.20049693    -2.45934373    -1.14852302
H      4.98033933    -0.23324867     1.43019909
H      3.85894545     1.72068502     1.50911574
H      4.57554755     3.75274221    -0.64815507
H      3.04271305     2.86069415    -0.55424228
H      3.14570659     5.12693146     0.42539978
H      5.26888482     3.57192333     2.39111620
H      7.39455776     3.82521258     1.40023283
H      5.88576013     1.34047982     3.25874125
H      8.22004735     1.68500166     3.43147457
H      7.65287143     1.09098665     0.77142727
H      7.64893589    -1.17252018     1.60924258
H      2.10743302     2.93457942     2.32537230
H      1.24070939     1.96706459     3.49742887
H     -0.12579089     3.74003273     1.41447693
H      0.27431561     4.30167570     3.01731778
H     -2.04655834     3.70876075     3.07112941
H     -1.22076867     2.47960909     3.98710521
H     -1.39947960     0.88281518     2.13671260
H     -1.90609515     2.13085693     1.03125121
H     -3.99750658     2.45927473     2.46960223
H     -3.52987161     1.06053564     3.39631308
H     -3.95941342     1.05514834     0.36325177
H     -3.61861129    -0.35532179     1.31258721
H     -6.08904327     1.39451676     1.79614640
H     -5.80437136    -0.20284043     2.44873744
H     -8.50239082     0.28206091    -0.21891276

