%chk=cand09_biphenyl_4CH2NMe2_conf02.chk
%nprocshared=8
%mem=16GB
#P B3LYP/6-31G(d) SCRF=(PCM,Solvent=Water) Pop=MK NoSymm

cand09_biphenyl_4CH2NMe2 conformer 2 (Boltzmann pop=0.138)

0 1
C      0.12469957    -8.74324785     1.60382537
C     -0.77247969    -7.51910447     1.50765722
C      0.00157755    -6.20449990     1.37473812
C      0.86739563    -6.10270529     0.11392954
C      0.07671218    -6.20719631    -1.19728094
C     -0.94900216    -5.13996966    -1.36015847
C     -1.86618196    -5.13605529    -2.32476779
C     -2.85317388    -4.08586609    -2.47897868
C     -3.77175706    -4.09214627    -3.44059904
C     -4.74725336    -2.97632628    -3.67972649
O     -5.21046284    -2.37649435    -2.47060606
C     -4.18124634    -1.92415544    -4.65218772
C     -3.02657029    -1.20097423    -4.05466007
C     -3.15481479    -0.05952196    -3.37778870
C     -2.09959976     0.50702205    -2.57472888
C     -2.27571190     1.56049709    -1.77514911
C     -1.26188988     1.93392207    -0.77102447
O     -0.74809210     3.04097317    -0.79393853
O     -1.02076036     0.96140589     0.17563225
C     -0.21662156     1.43705268     1.25647254
C      1.28126337     1.14776746     0.98378503
O      1.70062519     1.79884348    -0.21569883
C      2.15609718     1.53408818     2.20735107
C      3.62980483     1.32485582     1.93355329
C      4.26516468     0.10795818     2.26088777
O      3.63636691    -0.89916843     2.96465607
C      5.58744272    -0.09713510     1.88204832
C      6.31385186     0.87504157     1.21166335
O      7.63393804     0.68365072     0.84042450
C      5.67801954     2.08063583     0.92201737
C      4.36088087     2.31211654     1.27530458
C      3.74107793     3.64259227     0.96059200
O      3.27333990     4.33863230     2.10042558
O      1.68506204     0.83859156     3.37914242
C      0.33094849     1.14308650     3.73657839
C     -0.03407836     0.38451441     5.01837211
O      0.40289766    -0.95389984     5.01693607
C     -0.66557236     0.81454342     2.59919368
O     -1.98136235     1.24540161     2.97851076
C     -2.99992795     0.35398248     2.52486858
O     -2.46708510    -0.94804940     2.25846565
C     -3.42115904    -1.91999282     1.84583472
C     -2.73976788    -3.28758059     1.76661343
O     -1.61370339    -3.24140670     0.92600298
C     -4.02255934    -1.46734030     0.49463804
O     -3.03379043    -1.36245147    -0.50706203
C     -4.73777470    -0.10446997     0.68113289
O     -5.23672964     0.35336904    -0.56395515
C     -3.79488474     0.94926677     1.32414454
O     -4.57735267     2.05520403     1.78175179
C     -4.48725768     3.23599280     0.99393763
O     -4.90752989     3.12238086    -0.37360446
C     -5.06920473     4.40845819    -0.98560007
C     -5.72127465     4.25506180    -2.36347331
O     -4.93868320     3.48893307    -3.24059444
C     -3.71125025     5.17281901    -1.04834854
O     -2.82376361     4.64418032    -2.02446719
C     -3.04884603     5.25495372     0.35968516
O     -1.70361269     5.68102693     0.24772724
C     -3.08625067     3.87997770     1.07022464
O     -2.63676763     3.97445515     2.40825098
C     -0.48956061    -2.81685387     1.59154514
O     -0.37268540    -2.74115578     2.80081377
C      0.64846088    -2.43909885     0.71452066
C      0.40753332    -1.86105002    -0.52235410
C      1.45124398    -1.42613111    -1.30447256
C      2.76858473    -1.57177323    -0.87289573
C      3.88797755    -0.99415759    -1.65323133
C      3.95841288     0.38071739    -1.85613421
C      4.98445311     0.93325854    -2.58849375
C      5.97396681     0.13269819    -3.13481931
C      7.06461351     0.74749663    -3.95425360
N      7.68994279     1.92142871    -3.29935537
C      8.57141210     2.63013343    -4.23411554
C      8.32193006     1.57730708    -2.00850023
C      5.91728228    -1.23759251    -2.92230511
C      4.89129453    -1.79539373    -2.18994012
C      3.00268115    -2.19653086     0.34966147
C      1.95577367    -2.61386625     1.13781265
H      0.72215764    -8.87458950     0.70067444
H     -0.45054224    -9.66037653     1.74633863
H      0.81848858    -8.65806648     2.44176928
H     -1.42226859    -7.47242881     2.39197838
H     -1.46180841    -7.62576323     0.66108517
H      0.62855323    -6.06702723     2.26474795
H     -0.70350762    -5.36539139     1.39345412
H      1.64459025    -6.87556736     0.14202371
H      1.41377863    -5.15137626     0.12006023
H      0.76080915    -6.17190659    -2.05443641
H     -0.41256088    -7.18566019    -1.25883824
H     -0.93969242    -4.33045428    -0.64945679
H     -1.88665596    -5.94398024    -3.03914373
H     -2.81089330    -3.26887477    -1.77563943
H     -3.77825307    -4.90774601    -4.14692098
H     -5.65904559    -3.41108766    -4.12497365
H     -4.46358266    -1.98950873    -1.95648081
H     -4.96514349    -1.20334141    -4.90632069
H     -3.88572591    -2.40139160    -5.59304248
H     -2.07532061    -1.71078005    -4.04790488
H     -4.11527230     0.42997811    -3.32817236
H     -1.15991552    -0.02062680    -2.53737369
H     -3.21725075     2.08508146    -1.74951514
H     -0.36493370     2.52259703     1.32143885
H      1.39945582     0.07052988     0.81151980
H      0.92392374     2.29823956    -0.55199386
H      2.00401649     2.59968970     2.42297068
H      2.79698329    -0.54477943     3.31646915
H      6.04800326    -1.03316132     2.13351674
H      7.97511976    -0.15189806     1.20732582
H      6.23981385     2.84295752     0.41370946
H      2.88086720     3.50248349     0.29904995
H      4.44277122     4.28493733     0.41528447
H      4.00175625     4.52055800     2.72114205
H      0.28150606     2.22691239     3.91754651
H      0.45052901     0.85405291     5.88272937
H     -1.11616182     0.41210431     5.19630741
H      0.07242030    -1.47146583     4.24878922
H     -0.70286923    -0.27555399     2.48055303
H     -3.69803360     0.24586494     3.36728721
H     -4.21300241    -1.93787821     2.61042559
H     -2.40239846    -3.61250773     2.75819905
H     -3.42514552    -4.04658801     1.37304141
H     -4.74347992    -2.21972726     0.14038020
H     -2.39118854    -0.67160515    -0.21857934
H     -5.60588581    -0.22829046     1.34652171
H     -5.23559895     1.33738175    -0.54875295
H     -3.08701531     1.32217200     0.58222068
H     -5.19484851     3.92742842     1.47426094
H     -5.75452299     4.97102222    -0.33227503
H     -6.68891867     3.74814088    -2.27471366
H     -5.90694561     5.23411605    -2.82200737
H     -4.01749109     3.81034724    -3.16212813
H     -3.91197156     6.19968851    -1.39509408
H     -2.12315653     4.09208572    -1.60224861
H     -3.56519895     5.99333454     0.98954630
H     -1.19360396     4.91259397    -0.09335756
H     -2.38178956     3.22840534     0.54707592
H     -2.49420586     3.06039939     2.74528226
H     -0.61236260    -1.72228432    -0.83625963
H      1.26128154    -0.94185749    -2.24718718
H      3.20462447     1.00709721    -1.41014979
H      5.03072072     1.99801411    -2.74161303
H      7.84378465     0.01168717    -4.16948493
H      6.65331730     1.06357036    -4.91670343
H      8.98223293     3.51748262    -3.75633148
H      8.01329499     2.94258935    -5.11467881
H      9.39247228     1.98661961    -4.54479153
H      8.69302550     2.47609197    -1.52048249
H      9.15166208     0.89084450    -2.16323866
H      7.59337218     1.10623504    -1.35258659
H      6.68339735    -1.86737691    -3.34191779
H      4.84905318    -2.86001818    -2.03428103
H      4.01616279    -2.29862940     0.69832427
H      2.13803579    -3.04719775     2.10657487

