%chk=cand09_biphenyl_4CH2NMe2_conf01.chk
%nprocshared=8
%mem=16GB
#P B3LYP/6-31G(d) SCRF=(PCM,Solvent=Water) Pop=MK NoSymm

cand09_biphenyl_4CH2NMe2 conformer 1 (Boltzmann pop=0.431)

0 1
C     -0.72671364    -7.37060958     2.94539329
C     -0.13905492    -7.37279853     1.54236448
C      0.43070551    -6.01078012     1.14711413
C      1.07079944    -5.98165047    -0.24483145
C      0.07743887    -6.19784682    -1.39452258
C     -0.95809339    -5.13184902    -1.49970389
C     -1.92150523    -5.12994749    -2.41842419
C     -2.91259556    -4.07853474    -2.53384127
C     -3.84968316    -4.07073742    -3.47774651
C     -4.82239107    -2.94710412    -3.69043815
O     -5.26574594    -2.35868921    -2.46885597
C     -4.26319509    -1.88665364    -4.65807062
C     -3.09428132    -1.17896446    -4.06934363
C     -3.20281821    -0.04139920    -3.38252070
C     -2.13294419     0.50890506    -2.58716710
C     -2.29434357     1.55015810    -1.76863376
C     -1.26741286     1.90631908    -0.77123816
O     -0.74677277     3.01028666    -0.78876866
O     -1.02394769     0.92407188     0.16511374
C     -0.21806300     1.38867750     1.25000649
C      1.27951985     1.09892899     0.97556854
O      1.69947861     1.75941504    -0.21860417
C      2.15500255     1.47240784     2.20296148
C      3.62845779     1.26013702     1.93024503
C      4.26028863     0.04015618     2.25336055
O      3.62874841    -0.96934140     2.95137855
C      5.58271914    -0.16653969     1.87593254
C      6.31319911     0.80732387     1.21256852
O      7.63299301     0.61405798     0.84131005
C      5.68147308     2.01667827     0.92949056
C      4.36385908     2.24934743     1.27993058
C      3.74861350     3.58325741     0.97083491
O      3.27913234     4.27413300     2.11305485
O      1.68155258     0.76891939     3.36883421
C      0.32815027     1.07301166     3.72817100
C     -0.03884260     0.30301971     5.00246066
O      0.39281094    -1.03699981     4.98632101
C     -0.66814023     0.75576807     2.58760367
O     -1.98331354     1.18455397     2.97111484
C     -3.00262085     0.29760226     2.51057906
O     -2.46939185    -1.00063786     2.22612536
C     -3.42193322    -1.97000795     1.80367277
C     -2.73413701    -3.33287672     1.69445453
O     -1.60905645    -3.26482592     0.85395505
C     -4.03367132    -1.49871740     0.46399706
O     -3.05141850    -1.38048320    -0.54254503
C     -4.74872956    -0.13899029     0.67219105
O     -5.25818962     0.33295683    -0.56344104
C     -3.80070221     0.90692478     1.31946243
O     -4.57734273     2.01163388     1.78979279
C     -4.48555373     3.19918138     1.01218476
O     -4.91023907     3.09875656    -0.35503455
C     -5.06874084     4.39043263    -0.95607054
C     -5.72517405     4.25080106    -2.33331567
O     -4.94815815     3.48823341    -3.21852325
C     -3.70812835     5.15022748    -1.01632567
O     -2.82542923     4.62661027    -1.99964204
C     -3.04166617     5.21845864     0.39046942
O     -1.69530565     5.64111843     0.27881435
C     -3.08215446     3.83793632     1.08992691
O     -2.62884023     3.92035801     2.42744289
C     -0.48802975    -2.84610472     1.52821195
O     -0.37384357    -2.78780093     2.73880482
C      0.65349691    -2.45871978     0.66025968
C      0.42046688    -1.87139818    -0.57379874
C      1.46973645    -1.43265638    -1.34665375
C      2.78442256    -1.58460297    -0.90868216
C      3.91128780    -1.00194106    -1.67414625
C      3.98227188     0.37390792    -1.86995183
C      5.02038000     0.93167717    -2.58119859
C      6.02266900     0.13589016    -3.11112990
C      7.12634087     0.75499404    -3.90982016
N      7.69296564     1.96879157    -3.27406095
C      8.57400397     2.68189036    -4.20588780
C      8.30260942     1.68528539    -1.95788747
C      5.96401612    -1.23556604    -2.90697905
C      4.92574724    -1.79871236    -2.19637611
C      3.01010457    -2.21916601     0.31023803
C      1.95799249    -2.63907633     1.08959092
H     -1.13589249    -8.34477128     3.22050118
H     -1.53096099    -6.63846416     3.03343894
H      0.02801981    -7.10857108     3.68869912
H     -0.90533422    -7.67590566     0.81884524
H      0.64803531    -8.13320805     1.46258918
H      1.16326698    -5.69905938     1.90232487
H     -0.36761308    -5.26351484     1.20253375
H      1.86306662    -6.73889446    -0.28886876
H      1.57950133    -5.02174278    -0.39826612
H      0.61612986    -6.25670565    -2.34865560
H     -0.41811280    -7.16846635    -1.28252546
H     -0.92025010    -4.32604142    -0.78553437
H     -1.97343223    -5.93693434    -3.13246932
H     -2.85294950    -3.26921187    -1.82302944
H     -3.87176470    -4.87757485    -4.19380157
H     -5.74251211    -3.37158543    -4.12839304
H     -4.50913745    -1.97870650    -1.96410970
H     -5.04570822    -1.15734652    -4.89133706
H     -3.98530130    -2.35404592    -5.60916384
H     -2.14803609    -1.69803063    -4.07790153
H     -4.15786655     0.45691869    -3.31759482
H     -1.19471328    -0.02262054    -2.57074547
H     -3.23439178     2.07632743    -1.72130283
H     -0.36403562     2.47392039     1.32439107
H      1.39582952     0.02318242     0.79388074
H      0.92315183     2.26266552    -0.54992838
H      2.00625364     2.53673256     2.42706847
H      2.78884299    -0.61630342     3.30305430
H      6.04025033    -1.10508163     2.12354911
H      7.96937440    -0.22849617     1.19621156
H      6.24644531     2.78117803     0.42811051
H      2.89013112     3.44933666     0.30580197
H      4.45378707     4.22665325     0.43128190
H      4.00627590     4.45174488     2.73641082
H      0.28046823     2.15524825     3.91888327
H      0.44813910     0.76152690     5.87136515
H     -1.12069687     0.33262530     5.18136124
H      0.06434223    -1.54286697     4.20957119
H     -0.70683569    -0.33320246     2.45958268
H     -3.69810860     0.17859030     3.35366720
H     -4.20850620    -2.00505972     2.57308020
H     -2.39479253    -3.67782985     2.67845195
H     -3.41663273    -4.08643956     1.28564831
H     -4.75692287    -2.24699633     0.10577854
H     -2.40250169    -0.69906998    -0.24612968
H     -5.61125503    -0.27119664     1.34318888
H     -5.25184208     1.31681156    -0.53951019
H     -3.09460931     1.28371863     0.57779474
H     -5.18942532     3.88867196     1.50060485
H     -5.74996591     4.95026086    -0.29624340
H     -6.69466479     3.74736030    -2.24588314
H     -5.90787690     5.23416969    -2.78367973
H     -4.02533380     3.80487215    -3.13946213
H     -3.90610307     6.18064423    -1.35393646
H     -2.12423992     4.07001124    -1.58440307
H     -3.55391501     5.95347581     1.02753839
H     -1.18789580     4.87403178    -0.06947973
H     -2.38121303     3.18823074     0.55978943
H     -2.48894371     3.00309630     2.75665485
H     -0.59741133    -1.72801082    -0.89233598
H      1.28587485    -0.94015063    -2.28633612
H      3.22100051     0.99669246    -1.43177315
H      5.06720629     1.99712602    -2.72912132
H      7.93392821     0.03579666    -4.06926610
H      6.74335483     1.02533513    -4.89752850
H      8.93999903     3.59673277    -3.74377825
H      8.02952292     2.94875562    -5.10966296
H      9.42551570     2.05985822    -4.47561440
H      8.61580961     2.61222421    -1.48208491
H      9.16870816     1.03690518    -2.07230822
H      7.57915767     1.19379664    -1.31153134
H      6.73897572    -1.86189649    -3.31537059
H      4.88362090    -2.86400198    -2.04534635
H      4.02129519    -2.32609820     0.66401448
H      2.13431647    -3.07794544     2.05692175

