%chk=cand04_biphenyl_4NH2_conf01.chk
%nprocshared=8
%mem=16GB
#P B3LYP/6-31G(d) SCRF=(PCM,Solvent=Water) Pop=MK NoSymm

cand04_biphenyl_4NH2 conformer 1 (Boltzmann pop=0.508)

0 1
C      1.52857917     0.48012154     5.30184362
C      2.28665283     0.28435710     3.99831060
C      3.29181423     1.40015523     3.70032585
C      4.46837588     1.44578955     4.67871765
C      5.50403940     2.52167454     4.32482551
C      6.12931662     2.31260832     2.98817551
C      6.77888064     3.25796195     2.31168731
C      7.30231254     3.03327646     0.97862126
C      7.75621882     4.00319454     0.18667149
C      8.13111688     3.80332871    -1.25758314
O      8.76729931     2.54837800    -1.49373171
C      6.92960604     4.01561451    -2.20605565
C      5.70708966     3.26477647    -1.80197152
C      4.80518327     2.76901532    -2.64886232
C      3.59641896     2.11630977    -2.20494868
C      2.76867834     1.44405627    -3.00587658
C      1.57817053     0.77104259    -2.48104631
O      0.95318926     0.01457026    -3.20274889
O      1.25165786     1.04962422    -1.17683341
C      0.06185582     0.39352522    -0.73399527
C     -1.19019780     1.25158021    -1.07530139
O     -1.38980390     1.30158408    -2.49010374
C     -2.47085046     0.72615382    -0.37155443
C     -3.64330498     1.64803306    -0.60084727
C     -3.64724666     2.88063275     0.08234026
O     -2.56723716     3.23544035     0.87030069
C     -4.73946475     3.73037193    -0.05658860
C     -5.81302740     3.40276769    -0.87260529
O     -6.91217188     4.23023644    -1.02048274
C     -5.76686774     2.19663573    -1.56925521
C     -4.70687668     1.31929561    -1.43995448
C     -4.69922676     0.08058441    -2.28802262
O     -3.91420451     0.22221309    -3.45214531
O     -2.26738539     0.52163840     1.04071677
C     -1.20216456    -0.38468920     1.33199043
C     -1.14279328    -0.58584037     2.83976856
O     -0.98923394     0.65996791     3.46901078
C      0.14344813     0.14568534     0.78887371
O      1.24517989    -0.67296615     1.17194232
C      1.22193798    -1.95293955     0.55717681
O     -0.06291521    -2.58140830     0.55390307
C     -0.13576640    -3.72629586    -0.29804697
C     -1.56816058    -4.27357212    -0.26142018
O     -2.52658015    -3.24304036    -0.28717850
C      0.88717576    -4.81038100     0.15125348
O      0.47479111    -5.42937992     1.35414365
C      2.31139576    -4.22316775     0.33608643
O      3.12797976    -5.18729238     0.97461558
C      2.24840568    -2.93225257     1.17977100
O      3.53470840    -2.37582724     1.39020676
C      3.96543824    -1.62839917     0.27041400
O      3.85152729    -2.29763112    -0.99192191
C      4.10550624    -1.41243737    -2.08336053
C      3.77000150    -2.09844000    -3.40737563
O      2.40948177    -2.45538574    -3.48529256
C      5.56799998    -0.89548498    -2.01576901
O      6.48623038    -1.95451834    -2.20154151
C      5.82567475    -0.18191875    -0.66222936
O      7.18122200     0.21136302    -0.56359938
C      5.41074021    -1.12067763     0.49242938
O      5.51162640    -0.51094903     1.76546897
C     -3.79077006    -3.75687237    -0.14147037
O     -4.05283910    -4.94566496    -0.15653810
C     -4.87131224    -2.75376406     0.05403464
C     -6.13512895    -2.94553840    -0.48584591
C     -7.10796608    -1.98322453    -0.34199721
C     -6.85233292    -0.79959983     0.35607538
C     -7.86388354     0.26782157     0.45711456
C     -7.92703932     1.09619454     1.58135197
C     -8.84813808     2.11015480     1.66420590
C     -9.74990338     2.34805825     0.62185180
N    -10.68414106     3.36347173     0.70727357
C     -9.68611003     1.52233819    -0.50532151
C     -8.76626507     0.50661806    -0.58355182
C     -5.58848930    -0.63602672     0.92569499
C     -4.61797848    -1.59508989     0.77228689
H      0.78974187    -0.30729624     5.46437364
H      2.19832525     0.48062603     6.16262175
H      0.99118214     1.42997898     5.30346861
H      1.56994669     0.21240023     3.17056903
H      2.80725520    -0.68138468     4.00566858
H      3.67756280     1.28431884     2.67970548
H      2.77714469     2.36802616     3.70230826
H      4.09538207     1.60700695     5.69690263
H      4.95772336     0.46553828     4.70127585
H      6.29273559     2.56155102     5.08622993
H      5.02368293     3.50691692     4.34331372
H      6.02856786     1.33290142     2.54602205
H      6.88855671     4.24323050     2.73549527
H      7.24500523     2.01605418     0.62167825
H      7.75570818     5.01488598     0.55945210
H      8.91476227     4.53709516    -1.51495825
H      8.19286236     1.80167498    -1.22197277
H      6.68309884     5.08197574    -2.26056545
H      7.22506115     3.71824551    -3.21737072
H      5.51787479     3.18042944    -0.74423960
H      4.96290034     2.85506763    -3.71218230
H      3.35309429     2.17482273    -1.15535191
H      2.96412149     1.35142337    -4.06059711
H     -0.00613077    -0.56849009    -1.25645302
H     -1.00777650     2.28265770    -0.74004434
H     -0.59787089     0.90049723    -2.90649728
H     -2.69313555    -0.26199407    -0.78973926
H     -2.69169872     4.12579733     1.24697913
H     -4.75275353     4.66065013     0.47733001
H     -6.78294396     5.06724854    -0.54000356
H     -6.58275549     1.95919869    -2.22741013
H     -4.35051473    -0.79191652    -1.72598682
H     -5.71684857    -0.16238736    -2.61497685
H     -3.03768052     0.60044836    -3.20659821
H     -1.44032411    -1.32420270     0.81916178
H     -2.06335194    -1.05119043     3.21224396
H     -0.30391404    -1.23173830     3.12095272
H     -1.54968070     1.31267847     2.99706267
H      0.33290213     1.11808570     1.26384864
H      1.49908131    -1.79708197    -0.49389052
H      0.09828365    -3.37084911    -1.31285960
H     -1.76761668    -4.97008848    -1.08469012
H     -1.71504487    -4.81775649     0.67944432
H      0.92028768    -5.60498579    -0.61183128
H      1.21711534    -5.95419844     1.71432138
H      2.75909757    -3.99902884    -0.64345797
H      3.96798138    -4.77920698     1.24909953
H      1.88024213    -3.20508786     2.17782521
H      3.30316759    -0.75155638     0.23053484
H      3.42083103    -0.56843018    -1.93684653
H      4.03146166    -1.46447956    -4.26330573
H      4.35409878    -3.01942677    -3.49951098
H      1.86023259    -1.64366225    -3.41301988
H      5.75723105    -0.19002531    -2.83818979
H      6.21100860    -2.72333671    -1.66585580
H      5.22578645     0.73473387    -0.59162623
H      7.73662697    -0.58356253    -0.65764328
H      6.08898570    -1.98318104     0.49406319
H      5.10499730    -1.12240895     2.41692465
H     -6.33507895    -3.85523094    -1.02690303
H     -8.08504120    -2.14390896    -0.76407044
H     -7.25132964     0.92077914     2.40087472
H     -8.88747865     2.73568527     2.53866595
H    -11.24736935     3.64220531    -0.07354197
H    -10.67098690     4.04740925     1.44000769
H    -10.37106959     1.69690985    -1.31648043
H     -8.71865991    -0.10340974    -1.46912509
H     -5.35592366     0.27741188     1.44575312
H     -3.63825768    -1.44648495     1.18879896

