%chk=t02_oxa_PEG3_conf03.chk
%nprocshared=8
%mem=16GB
#P B3LYP/6-31G(d) SCRF=(PCM,Solvent=Water) Pop=MK NoSymm

t02_oxa_PEG3 conformer 3 (Boltzmann pop=0.047)

0 1
O     -0.78128648    -0.31212795     1.00389932
C     -0.34820054     0.97117107     0.56293900
C      1.16198997     1.19287193     0.78900150
O      1.93333462     0.19027610     0.15581226
C      1.61531053     2.62140712     0.36803711
C      3.05505873     2.82623470     0.75956741
C      4.02094391     3.01896294    -0.24890387
O      3.62289346     3.21943764    -1.56084706
C      5.36583862     3.01806561     0.10234961
C      5.77495853     2.85189262     1.41852904
O      7.12750933     2.79603362     1.70330052
C      4.79670602     2.75437223     2.40811441
C      3.45107489     2.76792334     2.09614290
C      2.46124741     2.79396529     3.22744556
O      2.41734797     1.60357590     4.00222347
O      0.76655722     3.65149036     0.92325187
C     -0.61974221     3.46424237     0.60649139
C     -1.44741624     4.65193914     1.08362793
O     -1.26473462     4.88782325     2.45422281
C     -1.12803841     2.13556438     1.20808388
O     -2.53719899     2.00710013     1.14179416
C     -3.00009564     1.65152151    -0.14793554
O     -2.37117752     2.33329369    -1.23535184
C     -2.76464237     1.74424175    -2.47645679
C     -1.85333870     2.18775024    -3.61623181
O     -0.51441488     1.81651152    -3.37660966
C     -0.37014301     0.45287508    -3.34111296
O     -1.26277243    -0.34832083    -3.54713508
C      0.98715087    -0.03245544    -2.98998812
C      2.04629107     0.85771973    -2.93079574
C      3.28797441     0.43395320    -2.52286687
C      3.50635666    -0.88866785    -2.14754773
C      4.81144322    -1.29609762    -1.58676177
C      5.40700524    -2.50520463    -1.93710384
C      6.61626497    -2.87598790    -1.38994452
C      7.25218106    -2.04848709    -0.48619118
C      6.67440803    -0.84838879    -0.12576376
C      5.46407308    -0.47789023    -0.66746337
C      2.44038535    -1.78238561    -2.22829931
C      1.20091436    -1.36023324    -2.65139939
C     -4.26753041     2.00821797    -2.73945386
O     -4.54063589     3.38979221    -2.84407159
C     -5.11809626     1.38997577    -1.60322294
O     -6.45021597     1.85170723    -1.73169440
C     -4.55140440     1.77277181    -0.21400825
O     -5.18175763     0.99623409     0.79266716
C     -4.56057034    -0.27146816     0.92924223
O     -4.24478904    -0.91715197    -0.31381466
C     -3.44776991    -2.08832349    -0.13151004
C     -3.02103393    -2.63000984    -1.49868799
O     -4.13539630    -2.97151766    -2.28009239
C     -4.21615697    -3.14316328     0.71746940
O     -5.35568499    -3.65940986     0.05878124
C     -4.65050145    -2.53118690     2.07121022
O     -5.48843438    -3.44143892     2.75786632
C     -5.40188481    -1.20723651     1.82519563
O     -5.73544472    -0.59241347     3.05683442
C     -0.49729697    -0.55099795     2.31723068
O      0.00117689     0.23853895     3.08940296
C     -0.82404712    -1.92959962     2.85151210
O     -1.45423949    -2.78091051     1.90050576
C     -0.57702192    -3.69837890     1.26951410
C      0.53384345    -3.00915795     0.49275741
O      1.50368060    -2.42850035     1.34091723
C      2.48200572    -3.34661104     1.79834253
C      3.54180378    -3.60771622     0.74116332
O      3.02033372    -4.21969816    -0.42672362
C      2.86472157    -5.62832493    -0.30058357
C      2.29605419    -6.24326091    -1.56060363
H     -0.52813547     0.98273176    -0.52156827
H      1.36556416     1.09358959     1.85944220
H      1.73691119    -0.69083689     0.55339669
H      1.53552135     2.70344321    -0.72387627
H      4.35165604     3.59886391    -2.08674871
H      6.11861760     3.12774907    -0.65474183
H      7.28058386     2.74050880     2.66265928
H      5.09063422     2.66464975     3.43771708
H      2.72964775     3.60425469     3.91617099
H      1.45921867     3.03343112     2.85399766
H      1.61837624     1.06787207     3.78246952
H     -0.68068656     3.38133634    -0.48748217
H     -2.51504937     4.45923711     0.92580219
H     -1.18814504     5.56259398     0.53007716
H     -0.32145076     5.05471083     2.63957324
H     -0.89755252     2.14516065     2.28396156
H     -2.72989333     0.59497959    -0.27624417
H     -2.62364870     0.66152096    -2.33988499
H     -1.88641067     3.27867028    -3.71167509
H     -2.16440490     1.75085882    -4.57224154
H      1.87171831     1.89326414    -3.17139778
H      4.09601350     1.13915358    -2.44067201
H      4.90965209    -3.15023032    -2.64127646
H      7.06658039    -3.81476074    -1.66898462
H      8.19906398    -2.33998545    -0.06154450
H      7.16857516    -0.19744144     0.57734142
H      4.99921008     0.44589522    -0.36929609
H      2.57955885    -2.78929277    -1.87324773
H      0.37151940    -2.04567783    -2.69538156
H     -4.55231859     1.55601179    -3.70325567
H     -5.50621299     3.53065118    -2.77851256
H     -5.13759453     0.29422990    -1.69249704
H     -6.98785249     1.54490784    -0.98175955
H     -4.82019778     2.81637390    -0.00643623
H     -3.60906388    -0.08081883     1.44777264
H     -2.56293417    -1.76150031     0.43587452
H     -2.38026567    -3.51299284    -1.39421866
H     -2.45905305    -1.87526525    -2.06240230
H     -4.82453213    -3.30332111    -1.67172365
H     -3.55171443    -4.00065575     0.90642345
H     -5.90315730    -4.14183121     0.70703228
H     -3.76650286    -2.33670878     2.69675893
H     -5.86561348    -3.01449368     3.54592572
H     -6.33994430    -1.43879372     1.30252825
H     -6.02198706     0.32438593     2.90282039
H      0.08956322    -2.41251401     3.20950868
H     -1.49968081    -1.83492165     3.70674204
H     -1.19099092    -4.31926798     0.60729044
H     -0.17550330    -4.36397840     2.03989451
H      0.10867818    -2.19716683    -0.10766022
H      1.04315253    -3.69132452    -0.19507320
H      1.98777712    -4.27120274     2.10905443
H      2.92831707    -2.90689137     2.69828013
H      4.36399617    -4.22402667     1.12216197
H      3.97652500    -2.65438191     0.42450936
H      2.21835288    -5.82584089     0.56201024
H      3.85065418    -6.04927339    -0.06905944
H      2.94290481    -6.03599620    -2.41361959
H      2.18381086    -7.32563257    -1.47646676
H      1.31773332    -5.81998340    -1.78968759

