%chk=t02_oxa_PEG3_conf05.chk
%nprocshared=8
%mem=16GB
#P B3LYP/6-31G(d) SCRF=(PCM,Solvent=Water) Pop=MK NoSymm

t02_oxa_PEG3 conformer 5 (Boltzmann pop=0.041)

0 1
O     -0.73394731    -0.26639368     1.00488961
C     -0.26238162     1.01030436     0.58480274
C      1.25284336     1.18491033     0.83280682
O      2.00484842     0.16804316     0.20046892
C      1.75206270     2.60588950     0.44073671
C      3.19522118     2.77534245     0.83507156
C      4.16404778     2.98086389    -0.16829268
O      3.76869640     3.17045854    -1.48273877
C      5.50798571     3.01054804     0.18736810
C      5.91072972     2.85711883     1.50715873
O      7.24304189     2.85077081     1.87961317
C      4.92819375     2.72269976     2.48790016
C      3.58352278     2.71607543     2.17309558
C      2.58685950     2.73923581     3.29941807
O      2.51344147     1.53499729     4.05100222
O      0.93418898     3.64324348     1.02130636
C     -0.45859662     3.51142474     0.68527207
C     -1.26576403     4.72790923     1.14895354
O     -2.56941763     4.73896379     0.60250465
C     -1.01572523     2.18368961     1.24603418
O     -2.43100889     2.09287316     1.19699734
C     -2.93876576     1.69756314    -0.06390933
O     -2.37122318     2.39332844    -1.17567236
C     -2.82268042     1.81214255    -2.40020274
C     -1.95434566     2.24684709    -3.57707605
O     -0.61063114     1.86590130    -3.38515776
C     -0.47746491     0.50101978    -3.35750206
O     -1.37906438    -0.29071889    -3.56098788
C      0.87626387     0.00069775    -3.01453725
C      1.93080377     0.88930265    -2.88523095
C      3.16350997     0.44736581    -2.46927423
C      3.37753550    -0.89310156    -2.16142205
C      4.66154590    -1.32520090    -1.57007102
C      5.31764163    -2.46898320    -2.01761400
C      6.49569027    -2.87595235    -1.42986506
C      7.03626376    -2.15222012    -0.38586452
C      6.39613680    -1.01877659     0.07256228
C      5.21934040    -0.60889253    -0.51315416
C      2.31772109    -1.78442439    -2.31425097
C      1.08651044    -1.34272785    -2.74102968
C     -4.33215578     2.09596024    -2.59177892
O     -4.58985037     3.48218183    -2.66308449
C     -5.13763719     1.47149166    -1.42593588
O     -6.46265986     1.96775223    -1.47382890
C     -4.49445081     1.80250516    -0.05548248
O     -5.06575865     0.98401722     0.95210393
C     -4.46880823    -0.30294009     0.97857507
O     -4.24441448    -0.87774065    -0.31839681
C     -3.49399254    -2.09053728    -0.25665840
C     -3.15753401    -2.55424134    -1.67701304
O     -4.32308531    -2.79919310    -2.41926138
C     -4.27337782    -3.16764807     0.55405248
O     -5.47583756    -3.56825862    -0.07330301
C     -4.59968661    -2.63841142     1.97090247
O     -5.44921385    -3.55282503     2.63702393
C     -5.29211366    -1.26437477     1.86541523
O     -5.51178168    -0.72405400     3.15643056
C     -0.46224171    -0.53502322     2.31536404
O      0.06436898     0.22146743     3.10210660
C     -0.84571680    -1.90758805     2.82587208
O     -1.51124837    -2.71359128     1.86011360
C     -0.67198418    -3.64506447     1.19879815
C      0.46488029    -2.97849879     0.44069638
O      1.45766497    -2.46525335     1.30531016
C      2.39887334    -3.43742157     1.72626158
C      3.44394434    -3.70040008     0.65507020
O      2.88756270    -4.23824612    -0.53199257
C      2.73303308    -5.65083324    -0.50183680
C      4.02793897    -6.38574619    -0.77219676
H     -0.43407633     1.04385493    -0.50053826
H      1.43879420     1.06724269     1.90438195
H      1.76538042    -0.71372042     0.57223218
H      1.67299960     2.71404534    -0.64876215
H      4.49629967     3.55067338    -2.00896222
H      6.24963102     3.13728906    -0.57717184
H      7.82022343     3.04931228     1.12151364
H      5.23654238     2.63863991     3.51434522
H      2.86472660     3.53197364     4.00489490
H      1.59257983     3.00885369     2.92549548
H      1.70673865     1.01703037     3.81670898
H     -0.50085274     3.45688566    -0.41076435
H     -0.76307533     5.65600638     0.85109100
H     -1.34721516     4.73692038     2.24114387
H     -2.64133770     3.96174972    -0.00580795
H     -0.78118687     2.15575512     2.32044829
H     -2.65266668     0.64536919    -0.19012007
H     -2.68927623     0.72736368    -2.27130663
H     -1.98221403     3.33753763    -3.67546075
H     -2.30430637     1.80857009    -4.51893322
H      1.75807459     1.93560632    -3.07540603
H      3.96168199     1.15020148    -2.31024971
H      4.89033093    -3.03452007    -2.82813312
H      6.99565898    -3.76214880    -1.78571227
H      7.95700889    -2.47388592     0.07311627
H      6.81171638    -0.45724659     0.89368684
H      4.69995214     0.25727464    -0.13982380
H      2.45355337    -2.80772729    -2.00776078
H      0.25959942    -2.02616591    -2.83563531
H     -4.66504641     1.66135411    -3.54812152
H     -5.54903006     3.63678553    -2.55118928
H     -5.19259159     0.37986610    -1.54135891
H     -6.96830825     1.65661794    -0.70359044
H     -4.76150351     2.83347532     0.21033223
H     -3.48540375    -0.16872062     1.45306248
H     -2.57101558    -1.83719001     0.28715360
H     -2.54933785    -3.46620926    -1.66447374
H     -2.59507716    -1.78510326    -2.22048852
H     -4.99639720    -3.13709516    -1.79674925
H     -3.65168810    -4.07260545     0.63894321
H     -6.01344085    -4.07196445     0.56688160
H     -3.67368376    -2.54085932     2.55688436
H     -5.76013689    -3.16727873     3.47388090
H     -6.27423684    -1.41341937     1.39654194
H     -5.76831171     0.21152257     3.08576178
H      0.04682348    -2.43492961     3.17437903
H     -1.51757062    -1.79892009     3.68256317
H     -1.31031345    -4.22002901     0.51844948
H     -0.29682539    -4.34950078     1.94764093
H      0.07415071    -2.13202890    -0.13515431
H      0.94532871    -3.66118353    -0.26725224
H      1.86795827    -4.35312119     2.00117651
H      2.86335335    -3.04952590     2.64076635
H      4.24062688    -4.36164947     1.01105481
H      3.91585455    -2.75393027     0.37484613
H      1.98351885    -5.89225050    -1.26602950
H      2.29670236    -5.93440597     0.46281935
H      4.77141335    -6.18606185    -0.00069620
H      3.88237955    -7.46652800    -0.81791700
H      4.45669347    -6.06475072    -1.72208294

