%chk=t02_oxa_PEG3_conf04.chk
%nprocshared=8
%mem=16GB
#P B3LYP/6-31G(d) SCRF=(PCM,Solvent=Water) Pop=MK NoSymm

t02_oxa_PEG3 conformer 4 (Boltzmann pop=0.044)

0 1
O     -0.78642988    -0.33141813     0.99088580
C     -0.34719298     0.95304191     0.56017143
C      1.16467172     1.16481467     0.78296916
O      1.93154073     0.15649603     0.15444866
C      1.61942835     2.59188576     0.35984512
C      3.06776098     2.80087131     0.71475400
C      3.99746516     3.05699702    -0.31392902
O      3.55370852     3.26765575    -1.60983995
C      5.35145598     3.11232998    -0.00185314
C      5.80158674     2.93580255     1.29962435
O      7.14542132     2.94838944     1.62771011
C      4.85574545     2.75565065     2.30854284
C      3.50199987     2.72294750     2.03780436
C      2.54448167     2.69347849     3.19691287
O      2.52487131     1.46795347     3.91726215
O      0.78620386     3.62075458     0.93920380
C     -0.60506715     3.44897082     0.63658166
C     -1.41550249     4.63373994     1.14909504
O     -1.21420989     4.83522460     2.52243565
C     -1.11700750     2.11466287     1.22214696
O     -2.52717263     1.99605523     1.16036796
C     -3.00104523     1.66586474    -0.13261013
O     -2.37039884     2.35505920    -1.21450630
C     -2.77809814     1.78947045    -2.46229492
C     -1.87240739     2.24692596    -3.60139349
O     -0.53434442     1.86450715    -3.37653553
C     -0.39777878     0.49968312    -3.37105230
O     -1.29339991    -0.29128692    -3.60227352
C      0.95395056    -0.00020221    -3.01933847
C      2.00802370     0.88925559    -2.89397030
C      3.23904393     0.45247288    -2.46785997
C      3.45113818    -0.88450425    -2.14428065
C      4.73276021    -1.30758436    -1.54147085
C      5.39734025    -2.45075547    -1.97786793
C      6.57569136    -2.84591986    -1.38271759
C      7.10791988    -2.11098013    -0.34230189
C      6.45920016    -0.97804213     0.10507723
C      5.28202291    -0.57980929    -0.48786768
C      2.39250639    -1.77806009    -2.29516217
C      1.16330656    -1.34110413    -2.73310907
C     -4.28033794     2.07101162    -2.71120365
O     -4.53970887     3.45641493    -2.79887398
C     -5.13066469     1.44876392    -1.57681947
O     -6.45821059     1.92718818    -1.69123442
C     -4.55070927     1.80995646    -0.18753641
O     -5.18631895     1.03468671     0.81676758
C     -4.58206278    -0.24245648     0.93955078
O     -4.28760960    -0.88265951    -0.31126097
C     -3.50745682    -2.06752973    -0.14667354
C     -3.10396948    -2.60377629    -1.52315022
O     -4.23263099    -2.91448503    -2.29682717
C     -4.28499103    -3.11698579     0.70061066
O     -5.44018196    -3.60718865     0.04905295
C     -4.69553034    -2.50998017     2.06393177
O     -5.54100882    -3.41296021     2.75091396
C     -5.42840883    -1.17228594     1.83699870
O     -5.73922922    -0.56312792     3.07736528
C     -0.49438429    -0.58820168     2.29920558
O      0.02340290     0.18443061     3.07591852
C     -0.83908282    -1.96786387     2.81918180
O     -1.50105325    -2.79182482     1.86573412
C     -0.65164982    -3.71263439     1.20248685
C      0.46485210    -3.03095258     0.42672357
O      1.45776805    -2.49187536     1.27560334
C      2.41363356    -3.44624038     1.70557405
C      3.45714154    -3.71345771     0.63382172
O      2.90371815    -4.27443386    -0.54375824
C      2.74109156    -5.68531769    -0.48420076
C      4.03439671    -6.43490509    -0.71971964
H     -0.53258986     0.97725639    -0.52317582
H      1.36590959     1.06670352     1.85310354
H      1.71391263    -0.72708192     0.53534455
H      1.51232043     2.68011650    -0.72909976
H      4.25108671     3.68445385    -2.14912452
H      6.06412683     3.27532593    -0.78689724
H      7.69242533     3.17434181     0.85511891
H      5.19988142     2.65456297     3.32200030
H      2.82925965     3.47283453     3.91430813
H      1.53257551     2.94862997     2.86180282
H      1.69955364     0.96022546     3.73044075
H     -0.68139768     3.38703864    -0.45776271
H     -2.48690237     4.45578992     0.99944511
H     -1.15231154     5.55433602     0.61411623
H     -0.26582959     4.97986017     2.70081933
H     -0.88213544     2.10921140     2.29719934
H     -2.74621355     0.60771802    -0.27822272
H     -2.64442583     0.70346209    -2.34567023
H     -1.90011393     3.33946474    -3.67848532
H     -2.19232756     1.82751393    -4.56232065
H      1.83527476     1.93430093    -3.09081372
H      4.03745698     1.15718383    -2.31630293
H      4.97717925    -3.02421628    -2.78653650
H      7.08321143    -3.73089762    -1.73074787
H      8.02925479    -2.42306046     0.12208933
H      6.86975480    -0.40633321     0.92170005
H      4.75775513     0.28773659    -0.12438921
H      2.52583983    -2.79844843    -1.97772390
H      0.33707315    -2.02571525    -2.82569006
H     -4.57592517     1.63260321    -3.67813288
H     -5.50339413     3.60662348    -2.72617284
H     -5.16332901     0.35440287    -1.67870068
H     -6.99346485     1.62093869    -0.93947074
H     -4.80275736     2.85564131     0.03047946
H     -3.62301157    -0.06924587     1.45020712
H     -2.61196020    -1.75960668     0.41456095
H     -2.48069842    -3.50086736    -1.43401726
H     -2.53167144    -1.85489723    -2.08436674
H     -4.92115590    -3.24118867    -1.68498409
H     -3.63362143    -3.98741772     0.87516569
H     -5.98880543    -4.08708425     0.69815550
H     -3.80217157    -2.33518747     2.68201992
H     -5.90338761    -2.98725479     3.54657687
H     -6.37548608    -1.38492854     1.32268774
H     -6.01580017     0.35852581     2.93458902
H      0.07037082    -2.47381222     3.15528632
H     -1.49942027    -1.87273603     3.68623135
H     -1.28686857    -4.30554716     0.53476676
H     -0.25564456    -4.40391256     1.95281071
H      0.05198356    -2.19681040    -0.15157633
H      0.95042422    -3.70973485    -0.28155746
H      1.89604036    -4.36399007     1.99815289
H      2.87869572    -3.03976654     2.61160418
H      4.26255841    -4.36048728     0.99612512
H      3.91789594    -2.76592687     0.33883696
H      2.00093820    -5.93939424    -1.25338774
H      2.28931055    -5.94537043     0.47985799
H      4.76803704    -6.22427742     0.05816186
H      3.88144991    -7.51538023    -0.74397028
H      4.47914376    -6.13806261    -1.67003431

