%chk=t02_oxa_PEG3_conf02.chk
%nprocshared=8
%mem=16GB
#P B3LYP/6-31G(d) SCRF=(PCM,Solvent=Water) Pop=MK NoSymm

t02_oxa_PEG3 conformer 2 (Boltzmann pop=0.065)

0 1
O     -0.80727616    -0.31585586     0.98930091
C     -0.36505073     0.96738229     0.55704882
C      1.14761438     1.17487578     0.78119563
O      1.90890978     0.17153476     0.13692821
C      1.61162466     2.60337831     0.37165506
C      3.05331989     2.79459894     0.76304513
C      4.01941790     2.98948061    -0.24487128
O      3.62167492     3.20114474    -1.55517833
C      5.36451682     2.98045877     0.10544654
C      5.77381036     2.80530290     1.42043344
O      7.12640663     2.74414091     1.70379145
C      4.79580920     2.70497992     2.40994249
C      3.45004381     2.72556314     2.09890994
C      2.46107657     2.74788153     3.23108141
O      2.41076927     1.55110969     3.99557707
O      0.77209414     3.63557094     0.93692423
C     -0.61625788     3.46234914     0.62163109
C     -1.43302232     4.65203444     1.11228464
O     -1.24890430     4.86960873     2.48565552
C     -1.13381179     2.13289061     1.21329036
O     -2.54414071     2.01693384     1.15011149
C     -3.01467074     1.67839414    -0.14152349
O     -2.38491093     2.36584637    -1.22478211
C     -2.78720098     1.79112214    -2.46981019
C     -1.87761649     2.24029049    -3.60884477
O     -0.54057384     1.85680883    -3.37838651
C     -0.40726632     0.49180252    -3.35717810
O     -1.30668939    -0.29990017    -3.57054801
C      0.94662141    -0.00866567    -3.01456079
C      2.01241536     0.87244444    -2.94082058
C      3.25113490     0.43241412    -2.54103693
C      3.46001387    -0.89810444    -2.18900287
C      4.76299789    -1.32579846    -1.63847472
C      5.34688111    -2.53422968    -2.01045774
C      6.55380517    -2.92522469    -1.47227422
C      7.19872669    -2.11912228    -0.55570123
C      6.63275071    -0.91994033    -0.17398307
C      5.42502801    -0.52887406    -0.70715365
C      2.38697838    -1.78196789    -2.28350031
C      1.15043389    -1.34337776    -2.69809719
C     -4.28951830     2.06631129    -2.72466248
O     -4.55422413     3.45027243    -2.81805756
C     -5.13990772     1.44473113    -1.58993202
O     -6.46938607     1.91639641    -1.70941558
C     -4.56502016     1.81340303    -0.20035605
O     -5.19791015     1.03654337     0.80445904
C     -4.58566387    -0.23632107     0.93196398
O     -4.28600712    -0.87961004    -0.31615925
C     -3.49771010    -2.05840802    -0.14586303
C     -3.08840954    -2.59812545    -1.51924653
O     -4.21337466    -2.92517738    -2.29159543
C     -4.26820825    -3.10959865     0.70569297
O     -5.41903207    -3.61209531     0.05592327
C     -4.68431041    -2.49947451     2.06589090
O     -5.52339647    -3.40555064     2.75658554
C     -5.42648914    -1.16808256     1.83256995
O     -5.74217297    -0.55557265     3.07007660
C     -0.52212094    -0.56684622     2.30012715
O     -0.01735993     0.21362010     3.07740913
C     -0.85579736    -1.94767333     2.82436019
O     -1.50011008    -2.78510930     1.87052008
C     -0.63545761    -3.70482112     1.22569536
C      0.47717089    -3.01912826     0.44844569
O      1.45659226    -2.45476662     1.29675857
C      2.43220602    -3.38494308     1.73467283
C      3.48200413    -3.63689712     0.66521889
O      2.94152020    -4.22577099    -0.50469373
C      2.80967550    -5.63886656    -0.42687088
C      4.11875195    -6.36288288    -0.65448925
H     -0.54760652     0.98889943    -0.52686464
H      1.35343686     1.06444631     1.85011246
H      1.70621401    -0.71137198     0.52732787
H      1.53090306     2.69536237    -0.71936827
H      4.35202705     3.58062485    -2.07884039
H      6.11734309     3.09194998    -0.65133177
H      7.27996522     2.67834631     2.66243337
H      5.09007462     2.60825900     3.43885946
H      2.73460462     3.55070950     3.92654572
H      1.46026642     2.99635630     2.86026364
H      1.60760901     1.02286109     3.77304112
H     -0.68057561     3.38985165    -0.47288879
H     -2.50236758     4.47121788     0.95181195
H     -1.16485055     5.56677676     0.56982013
H     -0.30417091     5.02556070     2.67337772
H     -0.90061671     2.13177708     2.28865650
H     -2.75414121     0.62091761    -0.28181246
H     -2.65206479     0.70633305    -2.34422699
H     -1.90338473     3.33237028    -3.69277497
H     -2.19558147     1.81550919    -4.56805205
H      1.84560210     1.91316004    -3.16407668
H      4.06430812     1.13012491    -2.44678190
H      4.84267076    -3.16209548    -2.72522301
H      6.99652093    -3.86196851    -1.76975053
H      8.14384142    -2.42631370    -0.13813361
H      7.13430369    -0.28589443     0.53944791
H      4.96974822     0.39448567    -0.39296284
H      2.51822912    -2.79598007    -1.94615523
H      0.31587803    -2.02183558    -2.75259777
H     -4.58057968     1.62297356    -3.69070931
H     -5.51870431     3.59678827    -2.74825824
H     -5.16714696     0.34985321    -1.68778881
H     -7.00549411     1.60873197    -0.95877423
H     -4.82382764     2.85806125     0.01451643
H     -3.62815964    -0.05510052     1.44275727
H     -2.60482832    -1.74201159     0.41479997
H     -2.45546120    -3.48792188    -1.42487000
H     -2.52433768    -1.84626460    -2.08482175
H     -4.89938595    -3.25415906    -1.67821328
H     -3.61010708    -3.97400066     0.88487589
H     -5.96457530    -4.09264043     0.70717755
H     -3.79270610    -2.31510322     2.68363915
H     -5.88832787    -2.97932718     3.55076893
H     -6.37173529    -1.38935644     1.31847129
H     -6.02371021     0.36389756     2.92304112
H      0.05672364    -2.44103837     3.17073748
H     -1.52390393    -1.85549173     3.68575729
H     -1.25915309    -4.31405683     0.56169505
H     -0.23526723    -4.38096817     1.98759056
H      0.05667990    -2.19830690    -0.14324183
H      0.97643992    -3.70092266    -0.24730388
H      1.93355037    -4.31111896     2.03368218
H      2.88736171    -2.96145352     2.63796062
H      4.30364490    -4.25954828     1.03375673
H      3.91855029    -2.68112087     0.35847248
H      2.07447882    -5.91857503    -1.19195180
H      2.36457871    -5.89647053     0.54092798
H      4.84868731    -6.12564254     0.11926264
H      3.98952664    -7.44667878    -0.66413980
H      4.55538815    -6.06915930    -1.60954679

