%chk=t02_oxa_PEG3_conf01.chk
%nprocshared=8
%mem=16GB
#P B3LYP/6-31G(d) SCRF=(PCM,Solvent=Water) Pop=MK NoSymm

t02_oxa_PEG3 conformer 1 (Boltzmann pop=0.148)

0 1
O     -0.79013436    -0.37304101     1.00068159
C     -0.36503545     0.92513821     0.59608730
C      1.14755875     1.14103861     0.81454522
O      1.91547173     0.15143933     0.15807802
C      1.59288981     2.58093947     0.42658859
C      3.04086560     2.78703026     0.78374256
C      3.97331282     3.05232288    -0.23989862
O      3.53338755     3.27475574    -1.53500150
C      5.32610822     3.10665823     0.07743285
C      5.77165751     2.92309186     1.37957741
O      7.11428588     2.93727157     1.71258673
C      4.82240702     2.73584005     2.38415414
C      3.46968737     2.70249323     2.10819286
C      2.50639855     2.67154742     3.26323223
O      2.49082638     1.44987346     3.98993195
O      0.76279415     3.58769334     1.04711492
C     -0.63178795     3.42028048     0.76448194
C     -1.40471495     4.60435829     1.33141029
O     -0.81702313     5.81587479     0.92780681
C     -1.14089823     2.06124624     1.29470885
O     -2.55171068     1.94505205     1.22214098
C     -3.01707036     1.63964541    -0.07960672
O     -2.37729956     2.34423909    -1.14598018
C     -2.77606949     1.79766692    -2.40555909
C     -1.86796365     2.27998393    -3.53254068
O     -0.52968889     1.89498863    -3.31382992
C     -0.39030124     0.53069756    -3.33856659
O     -1.28471012    -0.25704293    -3.58490568
C      0.96362919     0.02688856    -3.00094921
C      2.01653271     0.91599638    -2.86363697
C      3.24903168     0.47478281    -2.44642717
C      3.46360986    -0.86653356    -2.14308791
C      4.74461137    -1.29531620    -1.54294454
C      5.41198551    -2.43213216    -1.99132782
C      6.58835705    -2.83379446    -1.39659446
C      7.11579871    -2.11183412    -0.34476670
C      6.46434847    -0.98532327     0.11444920
C      5.28921630    -0.58057159    -0.47806796
C      2.40680456    -1.75973318    -2.30848334
C      1.17616780    -1.31820529    -2.73780984
C     -4.27854029     2.07513896    -2.66031138
O     -4.54466407     3.45985238    -2.73775554
C     -5.13436793     1.43814041    -1.53841051
O     -6.46327858     1.91139724    -1.65765880
C     -4.56549072     1.78820899    -0.14209471
O     -5.20872547     1.00659432     0.85249297
C     -4.60369725    -0.27039978     0.97098188
O     -4.31006313    -0.90622972    -0.28210412
C     -3.52474360    -2.08852240    -0.12361572
C     -3.12796535    -2.62048918    -1.50382999
O     -4.25998997    -2.93307863    -2.27149687
C     -4.29229623    -3.14284649     0.72693764
O     -5.44435850    -3.64400649     0.07820815
C     -4.70330747    -2.53870015     2.09173182
O     -5.54062120    -3.44698148     2.78164272
C     -5.44511079    -1.20549578     1.86724119
O     -5.75807029    -0.59941571     3.10860508
C     -0.48413661    -0.65874650     2.30026665
O      0.04068780     0.09624407     3.08967675
C     -0.82271245    -2.04941436     2.79404386
O     -1.48764674    -2.85601177     1.82811775
C     -0.63869538    -3.75988120     1.14181087
C      0.47062773    -3.05819697     0.37352560
O      1.46453645    -2.52731076     1.22622334
C      2.41874370    -3.48629916     1.64959389
C      3.46362730    -3.74633290     0.57758403
O      2.90963308    -4.28841611    -0.60856118
C      2.74288147    -5.69959507    -0.56983849
C      4.03294413    -6.44861821    -0.82400459
H     -0.55833664     0.97470961    -0.48486672
H      1.35741008     1.01882597     1.88091858
H      1.70616837    -0.74157097     0.52161489
H      1.47776479     2.70139714    -0.65839043
H      4.23294721     3.69567755    -2.06838717
H      6.04136833     3.27635585    -0.70381673
H      7.66328183     3.17189386     0.94396933
H      5.16283925     2.63072066     3.39843349
H      2.78115728     3.45743159     3.97752905
H      1.49386619     2.91854383     2.92420958
H      1.68865876     0.91730484     3.77354737
H     -0.72268799     3.42308505    -0.32983424
H     -1.40724649     4.56594582     2.42671582
H     -2.44869948     4.59520624     0.99861391
H      0.15513129     5.73255614     0.97925280
H     -0.91005910     2.00857374     2.36858038
H     -2.76440702     0.58337589    -0.24182760
H     -2.63675517     0.71057418    -2.30706503
H     -1.89707655     3.37390781    -3.58635148
H     -2.18530330     1.88084678    -4.50294192
H      1.84118700     1.96400409    -3.04147990
H      4.04646667     1.17852348    -2.28519768
H      4.99519830    -2.99600302    -2.80837818
H      7.09772468    -3.71412841    -1.75339563
H      8.03555721    -2.42900018     0.11928079
H      6.87093883    -0.42400755     0.94020929
H      4.76329081     0.28234126    -0.10617124
H      2.54223060    -2.78484609    -2.00794230
H      0.35100153    -2.00260707    -2.84008077
H     -4.56578037     1.64401434    -3.63304709
H     -5.50942521     3.60483324    -2.66852647
H     -5.16108609     0.34468833    -1.65155785
H     -7.00245902     1.59419486    -0.91322383
H     -4.81642893     2.83296564     0.08184089
H     -3.64419480    -0.09765674     1.48083329
H     -2.62646547    -1.77876086     0.43202845
H     -2.50174763    -3.51586059    -1.42056144
H     -2.56096424    -1.86888113    -2.06673142
H     -4.94387760    -3.26389589    -1.65680744
H     -3.63253956    -4.00710348     0.90051881
H     -5.98768567    -4.12825266     0.72876572
H     -3.80968373    -2.35744530     2.70740591
H     -5.90401019    -3.02319582     3.57776791
H     -6.39130504    -1.42308061     1.35357169
H     -6.04195229     0.32007438     2.96672008
H      0.08993836    -2.55930545     3.11528713
H     -1.47839048    -1.97361383     3.66652301
H     -1.27564347    -4.34178599     0.46613843
H     -0.23648995    -4.46487954     1.87580568
H      0.05006389    -2.21653428    -0.18809807
H      0.95699629    -3.72165319    -0.34854311
H      1.90024545    -4.40611118     1.93374268
H      2.88263292    -3.08763570     2.55968730
H      4.26368205    -4.40338218     0.93379194
H      3.93141616    -2.79817675     0.29621254
H      1.99780164    -5.93979863    -1.33875928
H      2.29563099    -5.97306420     0.39263191
H      4.77185251    -6.25033014    -0.04781768
H      3.87735521    -7.52827452    -0.86269651
H      4.47239528    -6.13927598    -1.77281332

