%chk=t11_C12_branched_conf01.chk
%nprocshared=8
%mem=16GB
#P B3LYP/6-31G(d) SCRF=(PCM,Solvent=Water) Pop=MK NoSymm

t11_C12_branched conformer 1 (Boltzmann pop=0.210)

0 1
O     -0.26956081    -2.34061838     1.57488516
C      0.64836819    -1.34425654     1.13405538
C      2.11762335    -1.71792811     1.42733466
O      2.43330305    -2.93515350     0.74789139
C      3.06223945    -0.55544716     0.99854164
C      4.50957298    -0.90346008     1.27701663
C      5.07944915    -0.60722248     2.53426426
O      4.40405643     0.11659482     3.49472751
C      6.36351113    -1.04803203     2.83361873
C      7.11570344    -1.76655742     1.91757048
O      8.39691285    -2.21237364     2.19246307
C      6.54208053    -2.03830617     0.67760052
C      5.26372964    -1.62952188     0.35233448
C      4.70689381    -2.07519935    -0.96972064
O      5.71280610    -2.51570684    -1.87076066
O      2.64284896     0.70498553     1.58072570
C      1.30175250     1.07523396     1.22669922
C      0.96224058     2.48908327     1.69747697
O      1.77082933     3.46473186     1.08666950
C      0.29436504     0.02530717     1.74325019
O     -1.05932609     0.38710258     1.50137285
C     -1.41021695     0.20875880     0.14012345
O     -0.52354740     0.86609989    -0.77190492
C     -0.74313340     0.49882185    -2.13742818
C      0.26490807     1.22996406    -3.02515904
O      1.60695938     0.87230226    -2.74601535
C      2.27397911     1.87345374    -2.08771467
O      1.77103997     2.92106952    -1.72731418
C      3.71970483     1.62676161    -1.83150036
C      4.48512596     0.95713674    -2.77343117
C      5.83059881     0.75932986    -2.56695399
C      6.45239765     1.22633665    -1.41033642
C      7.90207756     1.02562199    -1.19859502
C      8.80543669     1.17364240    -2.24956905
C     10.15545147     0.97814925    -2.05312521
C     10.63015594     0.62992390    -0.80501502
C      9.75067487     0.48079790     0.24765995
C      8.40113651     0.68009529     0.05493691
C      5.67320528     1.88967600    -0.46412079
C      4.32883466     2.08811829    -0.67388638
C     -2.19820387     0.83455132    -2.56840371
O     -2.39395188     2.23232262    -2.66584435
C     -3.24180054     0.23472001    -1.59294291
O     -4.52435304     0.73119628    -1.93722946
C     -2.88274766     0.60020954    -0.13600886
O     -3.73440851    -0.06137084     0.80498283
C     -4.78405891     0.72437153     1.35979291
O     -5.91041619     0.94873749     0.49694889
C     -7.02895542     1.51658133     1.19159382
C     -8.22909266     1.63460297     0.25014968
O     -7.89204333     2.34167648    -0.91466226
C     -6.64666668     2.89701953     1.79793991
O     -6.34874553     3.85888049     0.80313943
C     -5.42698549     2.75377442     2.73917455
O     -5.00708544     4.03661366     3.16726385
C     -4.28354647     2.05289860     1.97867045
O     -3.17377952     1.85828083     2.83557825
C     -0.65616334    -3.17352496     0.55927452
O     -0.12392190    -3.23534213    -0.52949837
C     -1.85749270    -4.02576668     0.86011398
C     -3.12296472    -3.17905076     0.89584827
C     -4.39049972    -3.98305623     1.18250065
C     -5.63292899    -3.10823799     1.37586461
C     -5.98624028    -2.22831055     0.17205980
C     -6.37663413    -2.98970190    -1.11189693
C     -7.72824935    -3.71307789    -0.94696026
C     -8.12908244    -4.55594493    -2.14840334
C     -6.35360397    -2.05171303    -2.33953580
C     -7.32276962    -0.87209287    -2.25763284
C     -7.24533990     0.04435692    -3.46880844
H      0.55133320    -1.26824206     0.04298311
H      2.23852330    -1.90551899     2.50326877
H      1.62671793    -3.20023253     0.24989885
H      2.94275619    -0.41652695    -0.08259998
H      3.61888273     0.50713332     3.06588256
H      6.77144518    -0.80861603     3.79698223
H      8.61523284    -2.07833636     3.13276138
H      7.11109950    -2.60023053    -0.04100463
H      4.00419369    -2.89803063    -0.79449122
H      4.15630458    -1.26033622    -1.45017878
H      5.33824419    -2.98511457    -2.63875221
H      1.26650838     1.05844423     0.13036263
H     -0.09034544     2.72230047     1.49208802
H      1.10551952     2.56856402     2.77967731
H      1.73182150     3.34985160     0.10691073
H      0.39367438    -0.04721931     2.83499597
H     -1.33740032    -0.86920617    -0.05420248
H     -0.56613991    -0.58519579    -2.20738505
H      0.07699271     1.02419161    -4.08517499
H      0.14808827     2.30934376    -2.87022460
H      4.00775026     0.59872046    -3.67001273
H      6.41473923     0.22306710    -3.29521821
H      8.43797053     1.45695794    -3.22126740
H     10.84182822     1.09753660    -2.87581336
H     11.68582497     0.47357213    -0.65290838
H     10.11919229     0.20010596     1.22071484
H      7.71405181     0.54529757     0.87232932
H      6.13789646     2.25980236     0.43376436
H      3.73302333     2.59460613     0.06594420
H     -2.37350404     0.42637615    -3.57699270
H     -3.35194248     2.41690476    -2.73620773
H     -3.26413996    -0.86021719    -1.68707183
H     -5.05216455     0.82247397    -1.11005376
H     -2.97343934     1.68333165    -0.02103510
H     -5.16796917     0.10728615     2.18406101
H     -7.27200012     0.82264270     2.01048288
H     -9.06522050     2.14641195     0.74231131
H     -8.59325325     0.64748661    -0.05333012
H     -7.30458542     3.07535091    -0.64337992
H     -7.50375594     3.29132349     2.36723718
H     -5.92282647     4.62714582     1.23017560
H     -5.69139560     2.16086461     3.62749207
H     -4.15579385     3.96557672     3.63326331
H     -3.97786832     2.73945117     1.17900694
H     -2.49118170     1.30663254     2.38738789
H     -1.70826148    -4.53241628     1.81800750
H     -1.94015206    -4.80968426     0.10172432
H     -3.22451549    -2.64919937    -0.05725987
H     -3.00612896    -2.38830949     1.64671013
H     -4.22735998    -4.59575012     2.07794864
H     -4.55697640    -4.70460161     0.37518727
H     -6.49300922    -3.73507983     1.63809002
H     -5.47314275    -2.46910776     2.25370125
H     -5.14335093    -1.56541416    -0.04789825
H     -6.80878990    -1.55556828     0.43871807
H     -5.61393107    -3.76586104    -1.28322299
H     -8.50543523    -2.97246955    -0.72757693
H     -7.68851428    -4.34986026    -0.05526074
H     -8.29349227    -3.94214775    -3.03492559
H     -9.05267155    -5.10937196    -1.96675316
H     -7.35454187    -5.28373919    -2.39515813
H     -6.55489775    -2.62453300    -3.25084471
H     -5.33881942    -1.66096678    -2.47353097
H     -7.10580110    -0.29305455    -1.35305269
H     -8.34806915    -1.23950942    -2.13042445
H     -7.91421253     0.90263796    -3.37298091
H     -6.23385310     0.43242066    -3.59816883
H     -7.51042436    -0.48500808    -4.38527471

