%chk=t11_C12_branched_conf02.chk
%nprocshared=8
%mem=16GB
#P B3LYP/6-31G(d) SCRF=(PCM,Solvent=Water) Pop=MK NoSymm

t11_C12_branched conformer 2 (Boltzmann pop=0.092)

0 1
O     -0.14660604    -2.52780048     1.70298202
C      0.70784589    -1.50270538     1.21109907
C      2.18142295    -1.76795951     1.56638109
O      2.56826725    -3.06978911     1.14704326
C      3.04607554    -0.63379538     0.94432287
C      4.52727100    -0.90719684     1.07339474
C      5.16611667    -0.65648147     2.30516658
O      4.51681769    -0.00612803     3.33422964
C      6.48250779    -1.05910328     2.49096816
C      7.19807827    -1.69277344     1.48639689
O      8.50572958    -2.08204014     1.72055303
C      6.56212134    -1.90334044     0.26391687
C      5.25448341    -1.50970040     0.04441029
C      4.64402646    -1.83848499    -1.28860474
O      4.02367131    -3.10496954    -1.30940342
O      2.63120594     0.64422416     1.48845817
C      1.26498884     0.96302127     1.17694650
C      0.89435378     2.36644652     1.65698252
O      1.66666219     3.37152111     1.04808972
C      0.29102665    -0.10790421     1.72716614
O     -1.07254572     0.19675269     1.45636452
C     -1.38289040     0.03587624     0.08393482
O     -0.52073075     0.74658411    -0.81040615
C     -0.63133769     0.28882908    -2.16255091
C      0.35420515     1.05736270    -3.04488512
O      1.70932808     0.79852304    -2.71824331
C      2.29149148     1.86542410    -2.08369749
O      1.70698453     2.88622160    -1.77259309
C      3.74468630     1.73165439    -1.78092802
C      4.26409895     2.18802921    -0.57876482
C      5.60947236     2.09254900    -0.31511655
C      6.48265355     1.54054152    -1.25018490
C      7.93096916     1.44712037    -0.96675771
C      8.38756564     1.11479226     0.30681329
C      9.73585535     1.02517531     0.57495770
C     10.65663023     1.27075076    -0.42304783
C     10.22432203     1.60578279    -1.69025393
C      8.87571168     1.69330852    -1.96123337
C      5.95332834     1.08245078    -2.45589227
C      4.60529967     1.17717557    -2.71621418
C     -2.08752598     0.45430941    -2.68386297
O     -2.40369829     1.81315081    -2.91237503
C     -3.12376441    -0.16420505    -1.71189781
O     -4.43274061     0.18622822    -2.13484742
C     -2.86679734     0.31764458    -0.26402525
O     -3.75421532    -0.33077666     0.64796080
C     -4.75637783     0.52036842     1.18617549
O     -5.63286943     1.13032377     0.22622092
C     -6.74953051     1.79453471     0.83553943
C     -7.68569126     2.33547549    -0.24790040
O     -7.02859251     3.24578890    -1.09026745
C     -6.27023947     2.92009686     1.79965933
O     -5.62247034     3.98391249     1.12605498
C     -5.30181204     2.34250354     2.85855817
O     -4.76731353     3.39497201     3.63996102
C     -4.16699443     1.59356050     2.13405495
O     -3.26289162     1.03846266     3.06749579
C     -0.85882841    -3.11079286     0.69001337
O     -0.68520846    -2.91412582    -0.49502314
C     -1.97227386    -4.02360832     1.11849975
C     -3.31752631    -3.36656315     0.84768901
C     -4.51659672    -4.26040843     1.15119553
C     -5.85730188    -3.58275190     0.85323325
C     -6.01726498    -3.18465790    -0.61626627
C     -7.44440772    -2.77453454    -1.03427069
C     -7.93027938    -1.48099421    -0.33251043
C     -8.62616865    -1.71354617     1.00176527
C     -7.55230302    -2.64742595    -2.57081925
C     -6.67945932    -1.54729330    -3.17806859
C     -6.85533342    -1.41708194    -4.68331954
H      0.64051151    -1.50952373     0.11595822
H      2.30016454    -1.72252879     2.65852260
H      1.96835529    -3.72763408     1.54019386
H      2.79418579    -0.57811665    -0.12029094
H      3.70378543     0.38656976     2.95927347
H      6.95582787    -0.87693625     3.43724503
H      8.84647215    -2.61525666     0.97963303
H      7.09868088    -2.39541804    -0.52619852
H      3.91711033    -1.08174333    -1.60146539
H      5.41661453    -1.84801544    -2.06597197
H      3.48113347    -3.19739229    -0.49322604
H      1.20235051     0.94319130     0.08257536
H     -0.16661571     2.57137636     1.46583782
H      1.04916449     2.44350483     2.73789983
H      1.62374306     3.26977985     0.06708057
H      0.37641829    -0.11643314     2.82251624
H     -1.22166662    -1.02826656    -0.11898463
H     -0.35058805    -0.77560923    -2.15898426
H      0.21269070     0.80356253    -4.10170645
H      0.16050734     2.13108467    -2.93255821
H      3.59833122     2.60763495     0.15526967
H      6.00081163     2.45862399     0.61871899
H      7.67050718     0.90220957     1.08071935
H     10.07029603     0.75267548     1.56310956
H     11.71161887     1.19956680    -0.21353803
H     10.94319023     1.80083461    -2.46961905
H      8.54113544     1.96987592    -2.94657874
H      6.61168072     0.64007761    -3.18381427
H      4.20048859     0.82497155    -3.65013780
H     -2.17052290    -0.04967092    -3.66059200
H     -3.36548273     1.89494861    -3.06819104
H     -3.05374613    -1.26129875    -1.73257563
H     -4.92228000     0.52568681    -1.34969162
H     -3.03948086     1.39878663    -0.21933553
H     -5.38588685    -0.14623080     1.79144291
H     -7.27716145     1.03094157     1.42600376
H     -8.55538048     2.83532888     0.19607783
H     -8.06121799     1.52443646    -0.88130105
H     -6.39973821     3.74792746    -0.53544466
H     -7.14593897     3.35805643     2.30512808
H     -5.16776976     4.54119820     1.78649868
H     -5.83097730     1.64738455     3.52742325
H     -4.04601347     3.05566505     4.19795790
H     -3.62099907     2.33803896     1.53838626
H     -2.50963488     0.64441040     2.57231850
H     -1.86255529    -4.26059361     2.18078892
H     -1.88964681    -4.96873518     0.57431662
H     -3.34557192    -3.05631375    -0.20233558
H     -3.39106578    -2.43364513     1.41874620
H     -4.47588081    -4.57708579     2.20058443
H     -4.43589679    -5.18449925     0.56707480
H     -6.68110311    -4.24771675     1.14027312
H     -5.95541684    -2.69431723     1.48648527
H     -5.69308224    -4.02098918    -1.24628567
H     -5.33178494    -2.36383416    -0.84890272
H     -8.12200079    -3.58652470    -0.72232294
H     -8.62267624    -0.95689612    -1.00355542
H     -7.07849344    -0.80137946    -0.21408794
H     -9.48691318    -2.37429468     0.88531756
H     -8.99138122    -0.78189076     1.43843779
H     -7.96641702    -2.17458344     1.73567575
H     -8.59764557    -2.46582481    -2.84563035
H     -7.29579859    -3.60634118    -3.03522341
H     -5.62540297    -1.74051822    -2.94506345
H     -6.90311374    -0.58897805    -2.69326282
H     -6.22562783    -0.62860181    -5.10048480
H     -6.59829528    -2.34729598    -5.19254517
H     -7.88931466    -1.18238884    -4.94108858

