%chk=t11_C12_branched_conf03.chk
%nprocshared=8
%mem=16GB
#P B3LYP/6-31G(d) SCRF=(PCM,Solvent=Water) Pop=MK NoSymm

t11_C12_branched conformer 3 (Boltzmann pop=0.083)

0 1
O     -0.14171614    -2.51405140     1.62898219
C      0.72211253    -1.47846251     1.17581429
C      2.18498057    -1.74542643     1.57437069
O      2.59193564    -3.03405611     1.13331761
C      3.07950227    -0.59980364     1.01778322
C      4.54497568    -0.85822735     1.28703940
C      5.04751628    -0.62865911     2.58484560
O      4.28061932    -0.01485157     3.55481542
C      6.34493117    -1.01182289     2.90136977
C      7.17415596    -1.60235105     1.96007930
O      8.47156644    -1.98498949     2.25356902
C      6.66987058    -1.79873523     0.67536014
C      5.38388580    -1.42781678     0.32762355
C      4.91586301    -1.74181157    -1.06428026
O      4.30172948    -3.00782381    -1.16526398
O      2.62314311     0.67897394     1.52593998
C      1.26554923     0.98298075     1.16817746
C      0.87443109     2.38698266     1.62878139
O      1.67198022     3.38865068     1.04754910
C      0.29165111    -0.09337346     1.70437429
O     -1.07351400     0.20756689     1.44210250
C     -1.39026001     0.06376186     0.06992061
O     -0.54245044     0.79934978    -0.81840668
C     -0.67320597     0.37627477    -2.18047446
C      0.29535163     1.16957130    -3.05900511
O      1.65360960     0.87901110    -2.77953870
C      2.27264573     1.91455744    -2.12909337
O      1.71938238     2.93821386    -1.77432933
C      3.72957586     1.73872472    -1.87353238
C      4.29885800     2.14585293    -0.67598345
C      5.65059426     2.01051168    -0.46311199
C      6.47708512     1.46870686    -1.44613777
C      7.93249925     1.32728083    -1.22483239
C      8.43126800     0.90056512     0.00381096
C      9.78593121     0.74638296     0.20174072
C     10.67103056     1.02540855    -0.81946023
C     10.19674931     1.45807860    -2.04107397
C      8.84159946     1.60670546    -2.24366949
C      5.89587754     1.05933060    -2.64528133
C      4.54265582     1.19099853    -2.85391530
C     -2.13628240     0.55014263    -2.67664328
O     -2.46322423     1.91389957    -2.85509184
C     -3.15372490    -0.10596172    -1.71087369
O     -4.47081423     0.24328391    -2.10918844
C     -2.88146393     0.33883701    -0.25430078
O     -3.75006065    -0.34218587     0.65239225
C     -4.75819700     0.48113930     1.22254297
O     -5.65592490     1.09822148     0.28716046
C     -6.77586968     1.73015168     0.92359784
C     -7.73323337     2.27953274    -0.13679530
O     -7.09951171     3.21644216    -0.96769899
C     -6.30268718     2.84245276     1.90573921
O     -5.67964790     3.93011289     1.24700591
C     -5.31259182     2.25831324     2.94064279
O     -4.78554910     3.30336138     3.73700784
C     -4.17470040     1.54216384     2.18804533
O     -3.25303892     0.98088511     3.10068175
C     -0.82290868    -3.08741466     0.58961570
O     -0.62732589    -2.86403793    -0.58714862
C     -1.92856811    -4.02799550     0.97660013
C     -3.28058229    -3.38920261     0.69626105
C     -4.46951027    -4.30300235     0.97924649
C     -5.81774571    -3.63167777     0.70181897
C     -5.98389853    -3.19139860    -0.75464754
C     -7.41514898    -2.77901210    -1.15554465
C     -7.90911158    -1.51295398    -0.41012174
C     -8.60745990    -1.79634829     0.91302945
C     -7.52922872    -2.60348568    -2.68683461
C     -6.66743114    -1.47768511    -3.26192677
C     -6.85297445    -1.29990078    -4.76113622
H      0.68445453    -1.46713600     0.07902783
H      2.26393915    -1.73194230     2.67104497
H      1.97595284    -3.70405067     1.47859808
H      2.91856587    -0.55113111    -0.06453138
H      3.51853209     0.39696214     3.10124530
H      6.70210681    -0.82885109     3.89673833
H      8.65000363    -1.89773902     3.20721896
H      7.30589508    -2.26935340    -0.05240677
H      4.22410932    -0.98041932    -1.43908500
H      5.76487711    -1.74109046    -1.75746675
H      3.67733782    -3.11398192    -0.41157812
H      1.23254970     0.95337877     0.07250981
H     -0.17859740     2.59070220     1.39674810
H      0.98827200     2.46720808     2.71451781
H      1.64783589     3.29692771     0.06501165
H      0.37865541    -0.11250739     2.79954953
H     -1.21763720    -0.99506236    -0.15131471
H     -0.38946708    -0.68707452    -2.20839877
H      0.12266850     0.95888164    -4.12072719
H      0.11858890     2.24024873    -2.89940615
H      3.66715526     2.56107654     0.09057276
H      6.08393996     2.33669303     0.46694840
H      7.74163303     0.66978579     0.79729168
H     10.15396965     0.39795093     1.15293170
H     11.73081743     0.90477619    -0.66345406
H     10.88754014     1.67967990    -2.83857939
H      8.47383590     1.95469805    -3.19399486
H      6.51796178     0.62390449    -3.40856440
H      4.09631921     0.87253725    -3.78107178
H     -2.23043020     0.07797594    -3.66815635
H     -3.42753972     1.99434454    -2.99495630
H     -3.07254245    -1.20110924    -1.76345848
H     -4.95579303     0.55318693    -1.30925172
H     -3.06453632     1.41643993    -0.17810763
H     -5.36984780    -0.20913043     1.81963724
H     -7.28397206     0.94499751     1.50288466
H     -8.60417889     2.75746273     0.32834291
H     -8.10536372     1.47685053    -0.78257640
H     -6.47259972     3.71718066    -0.40948843
H     -7.17909689     3.25591051     2.43029757
H     -5.22594559     4.48111110     1.91341322
H     -5.82244488     1.54123195     3.60125315
H     -4.05243894     2.96496574     4.27982350
H     -3.64588478     2.30737375     1.60335055
H     -2.49902562     0.60917331     2.59005543
H     -1.83399003    -4.28614252     2.03539002
H     -1.81989445    -4.95970153     0.41416478
H     -3.30239650    -3.06897685    -0.35091453
H     -3.37484938    -2.46395868     1.27619589
H     -4.42366407    -4.64456592     2.02060549
H     -4.38026620    -5.21171674     0.37269900
H     -6.63408164    -4.31357165     0.96977594
H     -5.92492043    -2.76332708     1.36100979
H     -5.65554307    -4.00615716    -1.41020879
H     -5.30488689    -2.35906105    -0.96406378
H     -8.08537221    -3.60603628    -0.86806388
H     -8.60230658    -0.96906065    -1.06435197
H     -7.06131357    -0.83347992    -0.26461833
H     -9.46479498    -2.45642089     0.77056158
H     -8.97824555    -0.88263053     1.38173564
H     -7.94752077    -2.28044645     1.63177975
H     -8.57693556    -2.42150654    -2.95223863
H     -7.26685873    -3.54499106    -3.18255561
H     -5.61076405    -1.67066686    -3.04076445
H     -6.89514809    -0.53731024    -2.74492873
H     -6.23089698    -0.49425890    -5.15623302
H     -6.59313182    -2.21139339    -5.30179967
H     -7.88991414    -1.06368783    -5.00524717

