%chk=t11_C12_branched_conf04.chk
%nprocshared=8
%mem=16GB
#P B3LYP/6-31G(d) SCRF=(PCM,Solvent=Water) Pop=MK NoSymm

t11_C12_branched conformer 4 (Boltzmann pop=0.082)

0 1
O     -0.09320463    -2.53901256     1.70155953
C      0.74879624    -1.51044907     1.19525682
C      2.22405384    -1.74887956     1.56772660
O      2.63794514    -3.04494329     1.15639019
C      3.07853434    -0.60421425     0.95153219
C      4.56360131    -0.83831692     1.10807462
C      5.17792616    -0.54827180     2.34375021
O      4.48331866     0.06600340     3.36632358
C      6.51616260    -0.86658741     2.54176871
C      7.27636216    -1.45221762     1.54075893
O      8.61387354    -1.76671694     1.70675815
C      6.65496095    -1.72133475     0.32274020
C      5.32840604    -1.40986263     0.08975962
C      4.74893141    -1.77328961    -1.24789377
O      4.15997547    -3.05481604    -1.26246523
O      2.63324802     0.67077820     1.47717715
C      1.26881599     0.96503886     1.14026246
C      0.87166458     2.36743102     1.60116632
O      1.65456111     3.37561353     1.01109050
C      0.30612680    -0.11559423     1.68975080
O     -1.05925975     0.16582541     1.40589093
C     -1.35578546     0.01217596     0.02913538
O     -0.49906445     0.74150744    -0.85598698
C     -0.59956289     0.29577690    -2.21387943
C      0.37303839     1.09210490    -3.08650662
O      1.73202753     0.83842370    -2.77269690
C      2.31439135     1.90228787    -2.13308966
O      1.73129535     2.92223977    -1.81702020
C      3.76701352     1.76185711    -1.82856233
C      4.63704208     1.26204079    -2.78556868
C      5.98019300     1.13847974    -2.51245243
C      6.49445538     1.50282802    -1.26856064
C      7.93063388     1.33859267    -0.95675506
C      8.59625764     2.25425256    -0.14356820
C      9.92813273     2.08572681     0.16774628
C     10.62265498     0.99974015    -0.32462660
C      9.98224091     0.08403766    -1.13389905
C      8.65175288     0.25262785    -1.45034651
C      5.61192838     2.00755280    -0.31515754
C      4.27275253     2.14083095    -0.59436188
C     -2.05686066     0.43813093    -2.74005981
O     -2.39601310     1.79225377    -2.96481427
C     -3.08560922    -0.20245919    -1.77483519
O     -4.40007748     0.12462404    -2.20056042
C     -2.83941070     0.28437739    -0.32731505
O     -3.73866727    -0.35196303     0.58034108
C     -4.72167758     0.52568504     1.11045482
O     -5.53056283     1.20178989     0.13586939
C     -6.63471679     1.91724730     0.71209037
C     -7.45188157     2.58349934    -0.39379783
O     -7.97799862     1.64397786    -1.30974851
C     -6.15144562     2.97039023     1.75119745
O     -5.45769102     4.03611276     1.13186562
C     -5.23846739     2.32058140     2.81637329
O     -4.68542387     3.32673235     3.64487884
C     -4.11457593     1.54901846     2.10086696
O     -3.25281111     0.93505233     3.03779691
C     -0.82039144    -3.12716629     0.70224030
O     -0.66414968    -2.93949150    -0.48654044
C     -1.92722057    -4.03599871     1.15532136
C     -3.27612629    -3.35973262     0.95872575
C     -4.46647860    -4.25359323     1.29543527
C     -5.81691581    -3.56602605     1.07640363
C     -6.03981391    -3.12417955    -0.37311084
C     -7.48188161    -2.67462263    -0.68332449
C     -7.84539535    -1.37938894     0.06617999
C     -9.30412248    -0.97438636    -0.07721635
C     -7.70979715    -2.55737776    -2.20635778
C     -6.87732555    -1.47317226    -2.89279155
C     -7.10320514    -1.41667728    -4.39575022
H      0.68750721    -1.53668763     0.10017303
H      2.32945562    -1.69878493     2.66096855
H      2.04090807    -3.71148395     1.53920662
H      2.84395074    -0.56313944    -0.11777203
H      3.66149912     0.42879782     2.98052082
H      6.95824992    -0.63640388     3.49210807
H      8.90627932    -1.57561147     2.61584140
H      7.23405627    -2.19929881    -0.44635791
H      4.01071484    -1.03739184    -1.58366604
H      5.53451457    -1.77425224    -2.01216459
H      3.60122315    -3.15039956    -0.45756992
H      1.22312292     0.93323988     0.04533694
H     -0.18510398     2.56211376     1.37876070
H      0.99432691     2.45093342     2.68571333
H      1.63115739     3.27962938     0.02876521
H      0.38189976    -0.11175406     2.78587292
H     -1.17865637    -1.04756340    -0.18361149
H     -0.29831889    -0.76297999    -2.22080880
H      0.22777038     0.85785647    -4.14731325
H      0.16960206     2.16143940    -2.95194445
H      4.24340232     0.97338646    -3.74573534
H      6.64888373     0.76481516    -3.26887125
H      8.06114126     3.10922082     0.23312985
H     10.42807602     2.80293783     0.79852046
H     11.66301983     0.86606071    -0.07602239
H     10.52170957    -0.76872562    -1.51337020
H      8.15276248    -0.47147472    -2.07123472
H      5.98335496     2.26864291     0.66101929
H      3.59892109     2.51926482     0.15473080
H     -2.12754747    -0.06396734    -3.71879124
H     -3.35712301     1.85651699    -3.13314947
H     -2.99590460    -1.29837222    -1.79608140
H     -4.88220307     0.49866880    -1.42671097
H     -3.01374164     1.36623494    -0.29148129
H     -5.40156134    -0.12408464     1.67770840
H     -7.26183569     1.16972117     1.21773922
H     -6.79803421     3.28140724    -0.92975052
H     -8.27378521     3.16520907     0.03998669
H     -8.45154867     2.09481491    -2.03485423
H     -7.02910157     3.41511248     2.24759524
H     -5.00228076     4.55858281     1.82211751
H     -5.81408712     1.62731962     3.44770861
H     -3.99087862     2.94218230     4.20745896
H     -3.52764355     2.28715363     1.53643602
H     -2.49169839     0.55376680     2.54516818
H     -1.77567737    -4.30008327     2.20598684
H     -1.87900455    -4.96876486     0.58621599
H     -3.34766882    -3.02395129    -0.08145305
H     -3.31696712    -2.43966741     1.55348299
H     -4.37940818    -4.59641168     2.33373413
H     -4.41741148    -5.16350698     0.68603548
H     -6.62889927    -4.23965441     1.37685661
H     -5.89492642    -2.70110717     1.74452096
H     -5.77112490    -3.94940108    -1.04231157
H     -5.35242017    -2.30946250    -0.62119926
H     -8.15396548    -3.46393934    -0.30758021
H     -7.19207339    -0.57357571    -0.28584537
H     -7.60467547    -1.49735211     1.12918793
H     -9.55856983    -0.75559022    -1.11464988
H     -9.53626788    -0.07910679     0.50306502
H     -9.97055244    -1.76882750     0.26225792
H     -8.77104961    -2.37853824    -2.40996757
H     -7.49177037    -3.52311375    -2.67660078
H     -5.81330689    -1.64109041    -2.68782385
H     -7.10124252    -0.49637411    -2.44701327
H     -8.14963410    -1.21649396    -4.63104867
H     -6.50321599    -0.63575186    -4.86764927
H     -6.84130942    -2.36381091    -4.87012178

