%chk=t11_C12_branched_conf05.chk
%nprocshared=8
%mem=16GB
#P B3LYP/6-31G(d) SCRF=(PCM,Solvent=Water) Pop=MK NoSymm

t11_C12_branched conformer 5 (Boltzmann pop=0.078)

0 1
O     -0.10644763    -2.59790159     1.68270560
C      0.73380087    -1.56611456     1.17972958
C      2.21149271    -1.81380917     1.53231401
O      2.61570575    -3.10663097     1.10085577
C      3.06277898    -0.66308585     0.92228563
C      4.54723930    -0.91779498     1.04929913
C      5.18137969    -0.67263910     2.28448823
O      4.52096346    -0.04648767     3.32158934
C      6.50444457    -1.05498892     2.46513091
C      7.23076353    -1.66262037     1.45223971
O      8.54476106    -2.03290011     1.68167264
C      6.59847383    -1.86818398     0.22698852
C      5.28390310    -1.49519729     0.01282110
C      4.67719891    -1.82078387    -1.32275377
O      4.07864459    -3.09761460    -1.35461260
O      2.63194702     0.60445112     1.47805522
C      1.26479664     0.90904652     1.15964033
C      0.87132021     2.30485431     1.64393462
O      1.63276716     3.32445770     1.04549040
C      0.30032776    -0.17662563     1.69692590
O     -1.06401840     0.11482416     1.41712292
C     -1.36136973    -0.03360000     0.04007719
O     -0.48802153     0.67773446    -0.84294226
C     -0.58571730     0.22610817    -2.19862275
C      0.40514234     1.00364504    -3.06714281
O      1.75839261     0.76488962    -2.71709439
C      2.31524394     1.84366135    -2.07937240
O      1.71061027     2.85644322    -1.78034160
C      3.76684096     1.73589374    -1.75752956
C      4.65199645     1.20804734    -2.68534506
C      5.99790762     1.13858168    -2.40641790
C      6.50057328     1.59658533    -1.18923630
C      7.94651420     1.53321844    -0.88621003
C      8.39299273     1.20532086     0.39212846
C      9.73921423     1.14684851     0.67891324
C     10.66781028     1.41937205    -0.30479225
C     10.24547648     1.75017278    -1.57643457
C      8.89905686     1.80656273    -1.86609872
C      5.60296727     2.12181183    -0.26206477
C      4.25992845     2.19200941    -0.54425190
C     -2.03765329     0.38835738    -2.73519591
O     -2.35216987     1.74594052    -2.97421113
C     -3.08469335    -0.22505092    -1.77119194
O     -4.38984935     0.12700759    -2.20541455
C     -2.83745140     0.26453466    -0.32454926
O     -3.75241576    -0.35022688     0.58230189
C     -4.71777703     0.55078887     1.10526436
O     -5.51087121     1.23530693     0.12350030
C     -6.59872969     1.98139367     0.69169112
C     -7.40214495     2.65207467    -0.42141162
O     -7.94852380     1.71214134    -1.32502061
C     -6.09218784     3.03502298     1.71920639
O     -5.37241585     4.07761030     1.09002014
C     -5.19625187     2.37524743     2.79256421
O     -4.62093776     3.37661444     3.61146923
C     -4.08989535     1.56964621     2.08721453
O     -3.24395143     0.94598934     3.03210223
C     -0.84400761    -3.17461152     0.68398384
O     -0.69152131    -2.98292769    -0.50469988
C     -1.95887228    -4.07244859     1.13926389
C     -3.29955907    -3.37575855     0.95782354
C     -4.50031601    -4.25105124     1.30619396
C     -5.84177851    -3.54226510     1.09908738
C     -6.07028852    -3.09874995    -0.34895606
C     -7.50650358    -2.62337653    -0.64790971
C     -7.83906861    -1.31922005     0.10045506
C     -9.28811190    -0.88024166    -0.04154929
C     -7.74423314    -2.50619934    -2.16940611
C     -6.90135969    -1.43526603    -2.86389628
C     -7.13074352    -1.38419331    -4.36649865
H      0.66041067    -1.57860062     0.08517537
H      2.32888614    -1.77748577     2.62491915
H      2.02455865    -3.77605740     1.48781231
H      2.81066367    -0.60054041    -0.14188063
H      3.70148999     0.33694731     2.95094341
H      6.97475973    -0.87691749     3.41363174
H      8.89499099    -2.54738718     0.93207050
H      7.14367131    -2.34027563    -0.56944808
H      3.93661919    -1.07395538    -1.62747948
H      5.44868971    -1.80905278    -2.10113698
H      3.53608089    -3.20507545    -0.54028600
H      1.21089272     0.89452142     0.06483409
H     -0.19115456     2.49523108     1.44632726
H      1.01686397     2.37847763     2.72637618
H      1.60025532     3.22653789     0.06360034
H      0.37751573    -0.18902594     2.79285154
H     -1.20470952    -1.09706001    -0.16997536
H     -0.30094037    -0.83719091    -2.19765057
H      0.28419087     0.74552524    -4.12544249
H      0.19548326     2.07497247    -2.96127441
H      4.26811297     0.85641700    -3.62829483
H      6.67555009     0.71661167    -3.12878803
H      7.67046976     0.97191715     1.15494784
H     10.06627640     0.87750684     1.67038640
H     11.72113396     1.37290702    -0.08059326
H     10.97033441     1.96663063    -2.34452650
H      8.57183859     2.08017780    -2.85473961
H      5.97325507     2.48775640     0.68033555
H      3.57572291     2.59214678     0.18353860
H     -2.11095030    -0.12103864    -3.70995697
H     -3.31091943     1.82533224    -3.14917533
H     -3.01765081    -1.32264017    -1.78627474
H     -4.86788301     0.51546689    -1.43614060
H     -2.99156053     1.34968165    -0.29560166
H     -5.41107285    -0.08016894     1.67737156
H     -7.24137819     1.25333373     1.20623325
H     -6.73399962     3.32909787    -0.96651209
H     -8.21143096     3.25624026     0.00543878
H     -8.41642152     2.16347672    -2.05341470
H     -6.95981536     3.50566494     2.20930178
H     -4.90874348     4.59914812     1.77545775
H     -5.78913918     1.70241919     3.43005214
H     -3.93546984     2.98175943     4.17802591
H     -3.48490959     2.28731302     1.51584671
H     -2.49057167     0.54266381     2.54515760
H     -1.80271801    -4.34539323     2.18696817
H     -1.92770819    -5.00193659     0.56366629
H     -3.37683563    -3.03766189    -0.08114511
H     -3.32004804    -2.45582837     1.55383610
H     -4.40899979    -4.59460148     2.34387899
H     -4.47110757    -5.16190679     0.69694458
H     -6.66169080    -4.20236712     1.40784803
H     -5.89970103    -2.67526216     1.76656308
H     -5.82222147    -3.92974250    -1.01898967
H     -5.37056416    -2.29695718    -0.60446589
H     -8.19011491    -3.39894222    -0.26445185
H     -7.16778552    -0.52948286    -0.25417471
H     -7.59941036    -1.44121857     1.16326968
H     -9.53793280    -0.65409809    -1.07856765
H     -9.49920085     0.01954461     0.53977791
H     -9.97276222    -1.65927440     0.29737365
H     -8.80431118    -2.31273724    -2.36568906
H     -7.54326650    -3.47592807    -2.63907428
H     -5.83877137    -1.61471790    -2.66147265
H     -7.11257167    -0.45385416    -2.42188861
H     -6.87988153    -2.33645336    -4.83660196
H     -8.17569463    -1.17443406    -4.60007876
H     -6.52383665    -0.61203449    -4.84405236

