%chk=cand01_quinolinecarbonyl_conf04.chk
%nprocshared=8
%mem=16GB
#P B3LYP/6-31G(d) SCRF=(PCM,Solvent=Water) Pop=MK NoSymm

cand01_quinolinecarbonyl conformer 4 (Boltzmann pop=0.093)

0 1
C     -8.03872134    -4.65019460    -1.26663831
C     -7.54754562    -6.07656458    -1.04692495
C     -6.06461361    -6.14284343    -0.68226635
C     -5.73709416    -5.40900833     0.61559788
C     -4.29956432    -5.67989976     1.07775873
C     -3.97508768    -4.85156811     2.27379383
C     -3.75113929    -5.33717667     3.49497983
C     -3.45642474    -4.51465762     4.64241407
C     -3.18545696    -5.00078262     5.85420855
C     -2.78093559    -4.15955172     7.02467603
O     -3.19263940    -4.70994328     8.26096159
C     -1.22878956    -4.07403754     7.08180744
C     -0.71587957    -3.26378758     5.95148206
C     -0.39742883    -3.77911320     4.75467499
C     -0.00115211    -2.97389389     3.64352248
C      0.17812234    -3.46230136     2.39916913
C      0.56320933    -2.64727029     1.26880806
O      0.58754121    -3.05747127     0.11055547
O      0.92124284    -1.39879651     1.59489185
C      1.12110875    -0.41942892     0.56531334
C      2.49085716    -0.56171989    -0.11493713
O      2.49288178    -1.55365941    -1.11654244
C      2.84903423     0.77731047    -0.79012583
C      4.13406823     0.67570180    -1.57006140
C      5.34471380     0.56450762    -0.87073928
O      5.31723230     0.52914031     0.48065280
C      6.54529229     0.48101799    -1.55819593
C      6.56320561     0.48593389    -2.94715142
O      7.76335264     0.40912999    -3.56387334
C      5.36416248     0.57277266    -3.64347992
C      4.15569859     0.67058028    -2.96589883
C      2.88762773     0.72947224    -3.78115114
O      2.13677661    -0.47736681    -3.72764616
O      2.95467905     1.77490876     0.20338869
C      1.69154487     2.12285127     0.71323468
C      1.91155167     3.16051578     1.82416170
O      2.64006938     2.63304362     2.89727660
C      0.91296727     0.92356151     1.28991760
O     -0.47536261     1.21976189     1.42913717
C     -1.19586909     1.54225347     0.28959038
O     -1.07378056     2.93161365     0.04438985
C     -1.70039560     3.29893826    -1.17776834
C     -1.32088765     4.74964067    -1.50570744
O      0.03664182     5.05667161    -1.21133274
C     -3.21308210     3.14387270    -0.99059735
O     -3.69175529     3.98815541     0.02203943
C     -3.53363613     1.67012783    -0.65638888
O     -4.90401872     1.53465980    -0.39103473
C     -2.68225546     1.19461962     0.54155650
O     -2.86184370    -0.16056514     0.92553107
C     -2.86258432    -1.20514550    -0.00988033
O     -1.87502289    -0.99673206    -0.98412147
C     -1.79666650    -2.06877541    -1.91555404
C     -0.58507770    -1.84348775    -2.82124987
O     -0.69408332    -0.62788472    -3.52850495
C     -3.11597698    -2.16212817    -2.68881929
O     -3.45412069    -0.93905538    -3.29905217
C     -4.24167794    -2.51766184    -1.70560340
O     -5.47068056    -2.62591337    -2.36412809
C     -4.28157884    -1.46625790    -0.58462580
O     -5.10016074    -1.94722198     0.45307262
C      1.00863882     4.39777204    -1.84085801
O      0.80029253     3.53184754    -2.67417261
C      2.35631400     4.82396396    -1.41353736
C      2.52915150     5.84022895    -0.44507479
C      3.78081343     6.19238585    -0.03064549
C      4.92106882     5.54279820    -0.55547132
N      6.14104668     5.89812093    -0.10379482
C      7.18789523     5.29259742    -0.59540953
C      7.13166090     4.28957049    -1.58153055
C      5.90709762     3.91201390    -2.05953668
C      4.74988103     4.53334805    -1.54400575
C      3.45269826     4.19505195    -1.95899530
H     -9.03927101    -4.65560029    -1.69255054
H     -7.37151444    -4.12028953    -1.94235852
H     -8.06919772    -4.10291927    -0.32855757
H     -7.70227151    -6.65252389    -1.96238716
H     -8.13568274    -6.54773101    -0.25572950
H     -5.77321482    -7.19226372    -0.58479498
H     -5.48077128    -5.70720514    -1.49677197
H     -5.86046622    -4.33492386     0.47214706
H     -6.42489547    -5.72935032     1.40122662
H     -4.17707275    -6.74100033     1.30430587
H     -3.61544959    -5.42235470     0.26277180
H     -3.96731610    -3.78197543     2.10353661
H     -3.76864634    -6.40678482     3.66015071
H     -3.45140182    -3.44520129     4.47466833
H     -3.18000122    -6.06717841     6.03339714
H     -3.18132416    -3.13932755     6.91544033
H     -4.15226747    -4.82240340     8.25812154
H     -0.97165255    -3.62499405     8.04093629
H     -0.84200697    -5.09253256     7.04908778
H     -0.67341025    -2.19319033     6.09809611
H     -0.45814743    -4.84546758     4.58997163
H      0.13816584    -1.91483932     3.81270135
H      0.01117845    -4.50428859     2.17021699
H      0.34515767    -0.56758454    -0.19790579
H      3.24737393    -0.78543352     0.65057895
H      1.98039173    -2.32803930    -0.80286994
H      2.01935454     1.04056390    -1.46310273
H      6.22041183     0.45129120     0.82930824
H      7.48270142     0.40011677    -1.03098593
H      7.65963464     0.38738447    -4.52775750
H      5.36352756     0.56080122    -4.72269504
H      2.24724536     1.56432270    -3.45818599
H      3.12852378     0.88378206    -4.83656178
H      2.33358969    -0.92725533    -2.88543244
H      1.09698621     2.57718600    -0.09076469
H      0.93903690     3.46159076     2.21638990
H      2.42098337     4.02977542     1.39271221
H      3.50118430     2.34048944     2.56388345
H      1.24303017     0.77608324     2.32599614
H     -0.84170182     1.00107202    -0.60406957
H     -1.35423921     2.62730072    -1.97683120
H     -1.51941144     4.92612580    -2.56664989
H     -1.89395026     5.44020419    -0.88609521
H     -3.75070148     3.41985838    -1.90232393
H     -3.05375817     3.99265625     0.75342686
H     -3.30019671     1.04649381    -1.52626368
H     -5.20192542     2.33226591     0.08213336
H     -2.98355460     1.72633490     1.45153372
H     -2.59849938    -2.09874799     0.59210763
H     -1.62950870    -3.00897595    -1.36678296
H      0.30947112    -1.84638728    -2.19573020
H     -0.52595785    -2.68948103    -3.51763929
H      0.18548718    -0.43824877    -3.90833089
H     -3.03823694    -2.95722039    -3.44623376
H     -2.66272282    -0.60247084    -3.75363276
H     -4.05186838    -3.49882750    -1.26001476
H     -5.62007687    -1.80817171    -2.86493035
H     -4.69718507    -0.54568756    -1.00058629
H     -5.37150674    -1.20255071     1.00805933
H      1.65462971     6.32552425    -0.04346780
H      3.93298996     6.96258558     0.70761218
H      8.14116824     5.61214105    -0.19607048
H      8.04006157     3.83613948    -1.94363939
H      5.79969602     3.14736120    -2.81364999
H      3.31756668     3.43060314    -2.70896309

