%chk=cand01_quinolinecarbonyl_conf03.chk
%nprocshared=8
%mem=16GB
#P B3LYP/6-31G(d) SCRF=(PCM,Solvent=Water) Pop=MK NoSymm

cand01_quinolinecarbonyl conformer 3 (Boltzmann pop=0.107)

0 1
C     -8.02715781    -6.82915868    -0.86686684
C     -7.75870670    -6.00902192     0.39004078
C     -6.47853106    -6.42153434     1.11553371
C     -5.22072419    -6.17691748     0.28521374
C     -3.94753171    -6.36061254     1.11899836
C     -3.84116498    -5.32596339     2.18799709
C     -3.69494736    -5.59098856     3.48669422
C     -3.58868936    -4.57454188     4.50455838
C     -3.40625504    -4.83902154     5.79884256
C     -3.20696585    -3.79882423     6.85546077
O     -3.80934883    -4.13534432     8.08223551
C     -1.67042763    -3.56079188     7.04851898
C     -1.12182574    -2.80478708     5.90020203
C     -0.65458629    -3.38095263     4.78105571
C     -0.19829210    -2.62948177     3.65700619
C      0.13293884    -3.18741472     2.47337898
C      0.59234328    -2.42626049     1.33564282
O      0.69222726    -2.88936468     0.19981474
O      0.92922665    -1.16236075     1.62420915
C      1.19620370    -0.23624619     0.56248373
C      2.61483893    -0.39413520    -0.00216530
O      2.70178088    -1.45557465    -0.92684540
C      3.00605463     0.89776354    -0.74999648
C      4.37909523     0.78857085    -1.36251897
C      5.49885208     0.82905758    -0.51821652
O      5.30911490     0.91992726     0.81798690
C      6.77830285     0.76639336    -1.04753753
C      6.96904012     0.63810109    -2.41729202
O      8.23891198     0.58952962    -2.87747004
C      5.86259477     0.56896925    -3.25389684
C      4.57565477     0.64762332    -2.73723493
C      3.41997590     0.52950436    -3.70022834
O      2.79505951    -0.74204275    -3.65972534
O      2.96964952     1.99421406     0.13828496
C      1.65570015     2.31615156     0.51713121
C      1.73627717     3.49107878     1.50329394
O      2.42682520     3.14625901     2.67080955
C      0.92632209     1.14135468     1.19199128
O     -0.47105805     1.39176458     1.30417794
C     -1.19611694     1.58786702     0.13853456
O     -1.19092298     2.96189920    -0.19275771
C     -1.85068597     3.18548374    -1.43356802
C     -1.58609336     4.63327017    -1.86791418
O     -0.25328245     5.06000674    -1.60732789
C     -3.34619420     2.91493841    -1.22922483
O     -3.89295058     3.77083336    -0.26202373
C     -3.53957692     1.43802538    -0.81471848
O     -4.88901714     1.18715322    -0.53239662
C     -2.64330650     1.11182237     0.39912151
O     -2.66800273    -0.23715471     0.83621780
C     -2.54068316    -1.30392340    -0.06581816
O     -1.72240622    -0.95822822    -1.15117113
C     -1.50925583    -2.04479263    -2.04722190
C     -0.51283606    -1.60483929    -3.12400341
O     -1.08299449    -0.63316734    -3.97250977
C     -2.84965643    -2.52222670    -2.62509879
O     -3.55974741    -1.50279118    -3.28454605
C     -3.74442123    -3.00951862    -1.47401423
O     -4.96258881    -3.50192761    -1.94874813
C     -3.92881184    -1.84584729    -0.48731790
O     -4.59884315    -2.31936384     0.65250900
C      0.76746787     4.40849488    -2.16144768
O      0.63028647     3.45828654    -2.91386617
C      2.07901761     4.95094167    -1.75179798
C      2.17211730     6.10169982    -0.93467399
C      3.39060641     6.55748614    -0.52266080
C      4.57463698     5.88057169    -0.89394264
N      5.75851970     6.34230003    -0.44272017
C      6.84611816     5.70565043    -0.78327290
C      6.86967878     4.56270520    -1.60460393
C      5.68391990     4.07806292    -2.08391746
C      4.48446047     4.73135804    -1.72892464
C      3.22015854     4.29189146    -2.15097965
H     -8.99571375    -6.56874367    -1.28704617
H     -8.02700088    -7.89218152    -0.63543812
H     -7.26783694    -6.63553901    -1.61958529
H     -8.60105433    -6.12297264     1.07672543
H     -7.68557641    -4.95292260     0.12233121
H     -6.40012799    -5.84449187     2.04024817
H     -6.53730292    -7.47883021     1.38651380
H     -5.19171019    -6.86758715    -0.55863131
H     -5.24666480    -5.16153610    -0.11402630
H     -3.93245749    -7.36059231     1.55802012
H     -3.08318095    -6.26798306     0.45302255
H     -3.90790261    -4.30022380     1.84652097
H     -3.64042471    -6.61875257     3.82348812
H     -3.65487654    -3.54993180     4.16400385
H     -3.33527447    -5.86525498     6.13515653
H     -3.67329355    -2.85400976     6.55906704
H     -3.51541879    -5.01755149     8.35224438
H     -1.54832998    -2.99907637     7.97470320
H     -1.18471522    -4.53298991     7.14031568
H     -1.17364031    -1.72610078     5.95713087
H     -0.62603171    -4.45788069     4.69464004
H     -0.13277784    -1.55482303     3.76078455
H      0.03112860    -4.24842653     2.29976710
H      0.48597801    -0.43822940    -0.25147351
H      3.31437792    -0.55225270     0.83102973
H      2.09896812    -2.17863257    -0.65015727
H      2.25001009     1.05765707    -1.53414008
H      6.16755869     0.93348706     1.27232247
H      7.64595267     0.80433709    -0.40781321
H      8.25655605     0.46856365    -3.83946025
H      5.99490116     0.45065614    -4.31841238
H      2.66791432     1.31266462    -3.51146670
H      3.77350852     0.65087636    -4.72767444
H      2.82508802    -1.07661653    -2.74449134
H      1.08805781     2.62491920    -0.37271076
H      0.72335145     3.76679948     1.80021109
H      2.21610450     4.33772962     0.99917272
H      3.31842925     2.86090675     2.42162261
H      1.25954428     1.08809533     2.23580314
H     -0.78133157     1.02860620    -0.71619984
H     -1.45141591     2.48768176    -2.18388563
H     -1.80157809     4.71963409    -2.93657679
H     -2.20615431     5.32105134    -1.29210517
H     -3.90490536     3.09538655    -2.15213600
H     -3.25361348     3.87552202     0.46058705
H     -3.25628386     0.78884684    -1.64914292
H     -5.25759343     1.97071991    -0.08698767
H     -3.00117401     1.64574616     1.28675173
H     -2.05408219    -2.10678120     0.52535441
H     -1.04924704    -2.87465856    -1.48821730
H      0.38304606    -1.20657681    -2.63425166
H     -0.22920323    -2.49720359    -3.69189299
H     -0.47046943    -0.46000723    -4.70141622
H     -2.65908991    -3.36106508    -3.31250470
H     -2.94042960    -1.03129285    -3.86964104
H     -3.26484723    -3.84271609    -0.95005862
H     -5.36151569    -2.82924766    -2.52346754
H     -4.50534831    -1.05407045    -0.97770963
H     -4.91106257    -1.56283517     1.16889979
H      1.26406679     6.60440067    -0.64475740
H      3.48338126     7.43140705     0.10092444
H      7.76759296     6.11434526    -0.39061610
H      7.80764598     4.08819230    -1.84331860
H      5.63933462     3.20516768    -2.71721219
H      3.14445173     3.42157157    -2.78555522

