%chk=cand01_quinolinecarbonyl_conf05.chk
%nprocshared=8
%mem=16GB
#P B3LYP/6-31G(d) SCRF=(PCM,Solvent=Water) Pop=MK NoSymm

cand01_quinolinecarbonyl conformer 5 (Boltzmann pop=0.078)

0 1
C     -8.02293981    -6.48517788    -1.65650443
C     -7.76847472    -5.84926374    -0.29446878
C     -6.52601802    -6.40055362     0.40390254
C     -5.23645804    -6.10196245    -0.35722320
C     -3.99499475    -6.42038069     0.48333274
C     -3.89536340    -5.52162117     1.66938675
C     -3.77674068    -5.94106494     2.92962883
C     -3.68134610    -5.05467893     4.06351319
C     -3.52761589    -5.47447577     5.31980202
C     -3.34897896    -4.57151917     6.49931931
O     -3.97470373    -5.05584791     7.66363863
C     -1.81724780    -4.35977002     6.74870070
C     -1.25399179    -3.44412502     5.73070740
C     -0.75308380    -3.84997990     4.55317798
C     -0.26701354    -2.94154964     3.56533449
C      0.12618122    -3.32230877     2.33175918
C      0.64038930    -2.40661466     1.33987671
O      0.83254222    -2.71079286     0.16322259
O      0.92812092    -1.18865739     1.81580451
C      1.27184470    -0.13810761     0.90206640
C      2.75380872    -0.17463161     0.51131497
O      3.04506481    -1.18801253    -0.42709513
C      3.12502978     1.18941984    -0.11431388
C      4.54828738     1.19772360    -0.60639856
C      5.59345011     1.21056877     0.32837655
O      5.29050799     1.18534387     1.64679048
C      6.91166756     1.25215668    -0.09634774
C      7.21213590     1.25992357    -1.45248032
O      8.51411015     1.31141200    -1.81274245
C      6.18059903     1.20702030    -2.37889606
C      4.85554017     1.17847268    -1.96580927
C      3.79654134     1.13338596    -3.03981930
O      2.76792966     0.17629267    -2.85073446
O      2.93745875     2.20865637     0.84306335
C      1.57324536     2.42049348     1.11533842
C      1.48801994     3.52553889     2.17894431
O      2.11269195     3.15198653     3.37514958
C      0.87763611     1.15177846     1.64194321
O     -0.53780913     1.30453782     1.69655500
C     -1.20708396     1.59450165     0.51780479
O     -1.19517031     2.99253953     0.31210993
C     -1.80229481     3.34260359    -0.92298838
C     -1.45591245     4.80686856    -1.20057883
O     -0.05031029     4.93221174    -1.39909425
C     -3.30372333     3.06463750    -0.80378140
O     -3.89088899     3.81856281     0.22217370
C     -3.50652250     1.55113373    -0.54953000
O     -4.86512005     1.26999112    -0.35297396
C     -2.66200560     1.09572419     0.66168268
O     -2.70405255    -0.29234590     0.94843429
C     -2.51009480    -1.25455159    -0.05403878
O     -1.64421552    -0.78506948    -1.05207819
C     -1.36360618    -1.76793915    -2.04263245
C     -0.32230926    -1.20516946    -3.01473828
O     -0.86690444    -0.15630795    -3.78617824
C     -2.66212626    -2.20229265    -2.73886209
O     -3.35469985    -1.13164612    -3.33311086
C     -3.61196563    -2.81354137    -1.69614740
O     -4.79529195    -3.26083211    -2.28932700
C     -3.86586152    -1.76115970    -0.60535566
O     -4.59180186    -2.35555034     0.43937464
C      0.42200618     4.68394250    -2.62704465
O     -0.30180200     4.45422231    -3.57720801
C      1.89652621     4.70367892    -2.69874783
C      2.50481632     4.68814756    -3.97533776
C      3.86347866     4.65680436    -4.09713311
C      4.68289424     4.61297903    -2.94627186
N      6.02145281     4.56264280    -3.10181819
C      6.76857644     4.50917339    -2.03310119
C      6.26993728     4.49688334    -0.71777221
C      4.91697584     4.54909073    -0.53005332
C      4.07297135     4.61863594    -1.65977715
C      2.67297745     4.68215779    -1.56158147
H     -8.96797119    -6.13517834    -2.06502928
H     -8.06596087    -7.56873468    -1.56908866
H     -7.23325406    -6.22202170    -2.35489103
H     -8.63573102    -6.02172244     0.34764298
H     -7.65198515    -4.77044642    -0.41703039
H     -6.45478394    -5.94846766     1.39626828
H     -6.63053999    -7.48048474     0.53638192
H     -5.20127195    -6.69030900    -1.27508357
H     -5.22091716    -5.04693844    -0.63560428
H     -4.01862452    -7.46495370     0.80152430
H     -3.10878424    -6.27559577    -0.14344322
H     -3.94260339    -4.46173391     1.45091111
H     -3.74079344    -7.00223691     3.14251804
H     -3.73330639    -3.99609089     3.84752214
H     -3.46948322    -6.53437315     5.53098022
H     -3.81164076    -3.59733514     6.31244295
H     -3.68400582    -5.96442378     7.82952536
H     -1.71219128    -3.93599024     7.74761994
H     -1.32712613    -5.33324465     6.70822630
H     -1.31851365    -2.38515992     5.94052695
H     -0.71101573    -4.90311276     4.31381120
H     -0.22250106    -1.89205029     3.82326212
H      0.05225169    -4.34938032     2.00604127
H      0.67450170    -0.26890832    -0.01129863
H      3.35669439    -0.32246071     1.41904422
H      2.38837996    -1.90818384    -0.34271232
H      2.44110437     1.36920471    -0.95614551
H      6.10630259     1.17878130     2.17391526
H      7.72478874     1.27118402     0.61226466
H      8.60977358     1.24344978    -2.77516288
H      6.40478332     1.19932823    -3.43431223
H      3.29970795     2.10895553    -3.11269029
H      4.28086065     0.93516347    -4.00481373
H      3.11180232    -0.53979685    -2.28860682
H      1.06577475     2.75403176     0.19824285
H      0.43829049     3.71036997     2.40907712
H      1.93927266     4.44060147     1.77549037
H      3.02498320     2.89578110     3.17214820
H      1.15651531     1.01775411     2.69421409
H     -0.74679189     1.11087631    -0.35929893
H     -1.38799651     2.71852928    -1.73109432
H     -1.98911906     5.14616519    -2.09257263
H     -1.68821465     5.42783084    -0.33743937
H     -3.82656880     3.33591507    -1.72543852
H     -3.28522013     3.84289649     0.97965393
H     -3.18492065     0.99317837    -1.43471867
H     -5.25819972     2.00370591     0.15208275
H     -3.06318748     1.53111008     1.58387988
H     -2.04024024    -2.11074878     0.47263405
H     -0.91593389    -2.64478375    -1.54899349
H      0.54325275    -0.84752499    -2.44556390
H     -0.00219822    -2.03169936    -3.65841363
H     -0.21307188     0.11274717    -4.44667113
H     -2.41943867    -2.96580730    -3.49431888
H     -2.71439752    -0.59583882    -3.83415092
H     -3.15250987    -3.69409506    -1.23559598
H     -5.16513813    -2.53512092    -2.81706429
H     -4.42460031    -0.92615269    -1.04233689
H     -4.93268004    -1.65893585     1.01832000
H      1.85998009     4.70300510    -4.84069157
H      4.34292212     4.65434098    -5.06197944
H      7.83549807     4.47495406    -2.20775089
H      6.95479481     4.44669230     0.11207908
H      4.47565881     4.52739007     0.45435644
H      2.21147302     4.69877157    -0.58699540

