%chk=cand01_quinolinecarbonyl_conf02.chk
%nprocshared=8
%mem=16GB
#P B3LYP/6-31G(d) SCRF=(PCM,Solvent=Water) Pop=MK NoSymm

cand01_quinolinecarbonyl conformer 2 (Boltzmann pop=0.121)

0 1
C      3.72109882    -3.08378099     4.76912838
C      4.75042935    -3.30207910     3.66574726
C      4.33836271    -2.69126986     2.32574577
C      3.05286861    -3.25495671     1.72220952
C      3.17265416    -4.71571579     1.27105950
C      1.95819356    -5.11203347     0.50428858
C      1.10188186    -6.07368966     0.85003989
C     -0.10274160    -6.34910304     0.10743773
C     -1.04203963    -7.22064158     0.47444385
C     -2.34889625    -7.36102158    -0.24703857
O     -2.91311579    -8.65106891    -0.12744439
C     -3.37881750    -6.37386218     0.37199116
C     -2.90685576    -4.97695404     0.21448463
C     -2.30190896    -4.29343424     1.19595314
C     -1.71959409    -2.98566178     1.08448754
C     -1.53307535    -2.28708706    -0.05270952
C     -0.92624825    -0.96695966    -0.09259144
O     -0.77923331    -0.32151166    -1.12340062
O     -0.57197117    -0.50410441     1.11561562
C      0.16238914     0.71935761     1.20432629
C      1.61059820     0.37743011     1.60239981
O      2.24704794    -0.28395499     0.54369535
C      2.35952638     1.67305103     1.99570858
C      3.74775014     1.34261736     2.49255560
C      3.92002361     0.79027995     3.76937261
O      2.88749129     0.60073277     4.62866351
C      5.17626757     0.39340422     4.20507240
C      6.27975613     0.53076672     3.37686839
O      7.47912619     0.10642402     3.83602614
C      6.11972465     1.10659949     2.12189225
C      4.86878332     1.50920284     1.67800561
C      4.76906535     2.13126163     0.30235336
O      4.21509103     3.43451238     0.29910195
O      1.63121098     2.36163166     3.00450320
C      0.38460317     2.83764039     2.54581821
C     -0.22439116     3.69469069     3.66202203
O      0.45023974     4.91060318     3.83166733
C     -0.53723219     1.65451765     2.19164893
O     -1.81202688     2.12531232     1.74840638
C     -2.00129775     2.38584759     0.39354155
O     -0.92245203     3.11671608    -0.12748915
C     -1.01254885     3.26364414    -1.53328621
C      0.30063429     3.89399206    -2.02125341
O      0.95231693     3.07539638    -2.98366847
C     -2.24441972     4.09990148    -1.89954265
O     -2.05634098     5.40918316    -1.43984657
C     -3.50349808     3.46393697    -1.28179455
O     -4.55586540     4.36773941    -1.49149318
C     -3.29165661     3.19813885     0.22256992
O     -4.45016634     2.61007085     0.80039746
C     -4.55285219     1.22111457     0.82381837
O     -4.45200997     0.72159083    -0.48580497
C     -4.59840508    -0.68469042    -0.56938063
C     -4.38995762    -1.06747194    -2.04360190
O     -5.18116625    -0.33378636    -2.93097689
C     -5.95733197    -1.14634474    -0.02030350
O     -6.99361079    -0.68192159    -0.84473031
C     -6.12629474    -0.62720857     1.41619857
O     -7.41282534    -0.98349462     1.84440292
C     -5.92217296     0.89288273     1.44240632
O     -6.00432907     1.31412722     2.77546275
C      1.64731503     2.02211491    -2.55314049
O      1.76539651     1.74514000    -1.37063360
C      2.26811479     1.25135734    -3.64487812
C      3.00278587     0.08626885    -3.32477078
C      3.60046495    -0.64983441    -4.30528677
C      3.49415916    -0.25758469    -5.65807811
N      4.09925792    -1.00704597    -6.60209517
C      3.99716727    -0.63831235    -7.84988619
C      3.29131925     0.50024054    -8.28319719
C      2.66769583     1.27843156    -7.34731047
C      2.75342072     0.91440452    -5.98470251
C      2.14620877     1.65488443    -4.95691345
H      3.46778260    -2.02901308     4.84927235
H      4.11935888    -3.41571301     5.72500124
H      2.81040002    -3.64290195     4.57069061
H      4.93363682    -4.37113937     3.54430374
H      5.69233676    -2.83801776     3.96747497
H      4.20625613    -1.61469099     2.45539158
H      5.15187550    -2.83312213     1.61022282
H      2.23494306    -3.16686119     2.43892312
H      2.78866081    -2.63558597     0.86175003
H      4.05301003    -4.80934077     0.62900922
H      3.30266658    -5.36963913     2.13370361
H      1.75928429    -4.51843227    -0.38026029
H      1.27697384    -6.66790875     1.73670666
H     -0.24469970    -5.76220050    -0.79190555
H     -0.93745085    -7.81206380     1.37266419
H     -2.21912638    -7.10341226    -1.31033568
H     -2.29061286    -9.30657135    -0.46893941
H     -4.32592215    -6.53523973    -0.14319871
H     -3.49524650    -6.63797019     1.42282441
H     -3.01612225    -4.54052085    -0.76796535
H     -2.22717536    -4.74990945     2.17291070
H     -1.37776506    -2.53542509     2.00635041
H     -1.81585002    -2.66699429    -1.02198467
H      0.20408508     1.18414373     0.21330055
H      1.60401672    -0.33283242     2.43638605
H      2.20471383     0.30829719    -0.22964550
H      2.41391590     2.30954228     1.10398292
H      2.12519457     1.12890437     4.33396409
H      5.28636971    -0.03406020     5.18754113
H      8.17434210     0.25814711     3.17705599
H      6.97528053     1.23231021     1.47550627
H      5.76224994     2.14955729    -0.16203247
H      4.11253466     1.53425438    -0.33606829
H      4.78146720     4.01533214     0.82700447
H      0.52475527     3.45608383     1.64801608
H     -0.22404481     3.11399261     4.59264637
H     -1.25204427     3.93947957     3.39047948
H      1.37820844     4.72697413     4.03962598
H     -0.77037134     1.09321213     3.10443038
H     -2.09912938     1.44488215    -0.18717623
H     -1.12524233     2.26335239    -1.98702148
H      0.11087950     4.84385853    -2.51770650
H      0.95092149     4.04351799    -1.15454200
H     -2.36108011     4.09398512    -2.99451861
H     -2.90918628     5.87024148    -1.51323925
H     -3.70746971     2.50431029    -1.77824418
H     -5.35079043     4.03668826    -1.04972619
H     -3.16332923     4.15129243     0.74757024
H     -3.75629409     0.77600540     1.45409218
H     -3.81285015    -1.16777348     0.03621590
H     -3.35111299    -0.85865984    -2.31503447
H     -4.58134650    -2.14509519    -2.14409055
H     -6.09628084    -0.34205860    -2.59870458
H     -5.96117617    -2.24673703     0.00573018
H     -7.83596845    -0.87395470    -0.40001760
H     -5.36054475    -1.08635115     2.06003613
H     -7.58287402    -0.56804740     2.70327818
H     -6.69423028     1.37302433     0.82442826
H     -5.80690509     2.26042787     2.82673683
H      3.07557621    -0.20971618    -2.28908053
H      4.16348162    -1.53957560    -4.07671213
H      4.50056727    -1.27318079    -8.56655765
H      3.25290945     0.74012801    -9.33307510
H      2.11271409     2.16263271    -7.62327600
H      1.58583483     2.54427023    -5.19969799

