%chk=cand01_quinolinecarbonyl_conf01.chk
%nprocshared=8
%mem=16GB
#P B3LYP/6-31G(d) SCRF=(PCM,Solvent=Water) Pop=MK NoSymm

cand01_quinolinecarbonyl conformer 1 (Boltzmann pop=0.169)

0 1
C      3.91994345    -3.13708357     4.37502239
C      4.89261989    -3.28033037     3.20976562
C      4.39594122    -2.61953568     1.92328860
C      3.08849040    -3.18157644     1.36699880
C      3.20675229    -4.62101130     0.85140622
C      1.96400475    -5.00654217     0.12520519
C      1.13961218    -5.99614824     0.46946196
C     -0.09276010    -6.26310664    -0.22949081
C     -1.00204078    -7.16285967     0.14503826
C     -2.33752610    -7.29701818    -0.52358205
O     -2.88239600    -8.59648484    -0.41918577
C     -3.35018918    -6.34137608     0.16915902
C     -2.89712989    -4.93508307     0.04260265
C     -2.26429115    -4.27878637     1.02499621
C     -1.69801138    -2.96213897     0.93827577
C     -1.55398311    -2.22448739    -0.18026340
C     -0.96217438    -0.89664233    -0.19378411
O     -0.85632593    -0.21345339    -1.20493149
O     -0.57116039    -0.47396128     1.01769152
C      0.14556726     0.75824120     1.12743426
C      1.61440341     0.42798951     1.45319696
O      2.22210376    -0.16588370     0.33845172
C      2.35362374     1.71813512     1.88067467
C      3.76586929     1.39337856     2.30863033
C      3.99625135     0.78027033     3.54801803
O      2.99961271     0.52433426     4.43210059
C      5.27551928     0.38945100     3.91718315
C      6.34529691     0.59629106     3.05960914
O      7.56965042     0.17764008     3.45376171
C      6.12730588     1.23259161     1.84310437
C      4.85264578     1.62809500     1.46505388
C      4.68952880     2.31841173     0.12838333
O      4.10868474     3.60676166     0.21309784
O      1.65179003     2.34287116     2.94794776
C      0.38214836     2.81862050     2.55680466
C     -0.20060076     3.60863578     3.73475142
O      0.46158519     4.82505088     3.94416762
C     -0.53269833     1.63780984     2.17833191
O     -1.82829825     2.10670149     1.79846307
C     -2.06969161     2.42719003     0.46459656
O     -1.02057210     3.19694185    -0.06127145
C     -1.16967930     3.41704903    -1.45294471
C      0.11425895     4.09120257    -1.96015322
O      0.75247890     3.31947780    -2.96928559
C     -2.42400808     4.25584735    -1.72509096
O     -2.23094272     5.54059789    -1.20255713
C     -3.65053831     3.57174295    -1.09366144
O     -4.72007311     4.47200843    -1.21171651
C     -3.37548441     3.22875478     0.38405663
O     -4.50451066     2.59544588     0.97246715
C     -4.58925355     1.20594048     0.93117483
O     -4.52005708     0.76881021    -0.40248563
C     -4.64532862    -0.63488929    -0.54312972
C     -4.47198985    -0.95121036    -2.03754165
O     -5.30302494    -0.19833644    -2.87045431
C     -5.97939517    -1.14622087     0.02306660
O     -7.04768789    -0.67337848    -0.75423576
C     -6.12138297    -0.68910570     1.48365036
O     -7.39265364    -1.08183314     1.92550845
C     -5.93737977     0.83119933     1.56915530
O     -5.99211001     1.19485681     2.92042879
C      1.47534742     2.26546203    -2.59640754
O      1.62969643     1.94781414    -1.42758801
C      2.08007363     1.54157519    -3.72839089
C      1.95957872     2.03433095    -5.04848090
C      2.53047022     1.36370959    -6.09026832
C      3.24694500     0.16612252    -5.86792576
N      3.79767486    -0.46899057    -6.92233980
C      4.45797663    -1.57438756    -6.70828573
C      4.63656333    -2.15638486    -5.43886830
C      4.08925009    -1.53351138    -4.35100498
C      3.36717308    -0.33445133    -4.54022445
C      2.77322210     0.37573691    -3.48408950
H      3.64558545    -2.09390165     4.51500442
H      4.37806569    -3.49857884     5.29259278
H      3.01372382    -3.71160277     4.20144199
H      5.09205258    -4.33810332     3.02921431
H      5.83918970    -2.80785298     3.48238334
H      4.25319098    -1.55234452     2.10806343
H      5.17118717    -2.71405821     1.15895209
H      2.30971753    -3.13678918     2.12972839
H      2.76724878    -2.53263164     0.54855964
H      4.05847090    -4.67640413     0.16750943
H      3.38510321    -5.30643898     1.68020754
H      1.71426613    -4.38166517    -0.72437126
H      1.36415770    -6.62189893     1.32257820
H     -0.28337945    -5.64554404    -1.09882167
H     -0.84910529    -7.78533434     1.01482213
H     -2.25656397    -7.00612186    -1.58318951
H     -2.26988583    -9.23425198    -0.80893889
H     -4.31559899    -6.49385660    -0.31374844
H     -3.42283924    -6.64303275     1.21381526
H     -3.04570363    -4.46678184    -0.91984178
H     -2.15116646    -4.76712109     1.98269817
H     -1.33115773    -2.53909254     1.86341087
H     -1.86495251    -2.57409406    -1.15231278
H      0.13908786     1.26409429     0.15594209
H      1.65357926    -0.32262432     2.25007686
H      2.14161303     0.46968718    -0.39727784
H      2.36158526     2.39719325     1.01932047
H      2.21748736     1.05195013     4.19371773
H      5.43030964    -0.08573714     4.87124673
H      8.23845147     0.38417615     2.78238825
H      6.95618782     1.41340979     1.17539309
H      5.66442333     2.38308594    -0.36959307
H      4.02205593     1.74107071    -0.51696381
H      4.68303752     4.17453332     0.74664622
H      0.48028914     3.48206086     1.68593243
H     -0.16043384     2.98131025     4.63385415
H     -1.24033590     3.85025810     3.51028074
H      1.39904522     4.64694301     4.11029001
H     -0.72746582     1.03260522     3.07190916
H     -2.17765827     1.51287606    -0.15590713
H     -1.28999439     2.44090179    -1.95474073
H     -0.11072639     5.05202262    -2.41919483
H      0.78827701     4.22663751    -1.10939574
H     -2.58375696     4.30677847    -2.81330007
H     -3.08819565     5.99886349    -1.22577300
H     -3.86471274     2.63745465    -1.63270218
H     -5.48689528     4.11794207    -0.73894870
H     -3.23753270     4.15384235     0.95477677
H     -3.76950131     0.74230835     1.51697152
H     -3.83459422    -1.12863775     0.01929281
H     -3.44573252    -0.70960535    -2.32903876
H     -4.64477267    -2.02757843    -2.17790310
H     -6.20801562    -0.24169324    -2.51392933
H     -5.95843918    -2.24658766     0.00485311
H     -7.87335738    -0.90434032    -0.29652232
H     -5.33475228    -1.16336875     2.09037465
H     -7.55258575    -0.69801328     2.80092075
H     -6.73046334     1.32587091     0.99020340
H     -5.79799360     2.13925907     3.00727503
H      1.41249947     2.94872225    -5.20886308
H      2.45234329     1.72456440    -7.10256845
H      4.87993521    -2.04324420    -7.58698967
H      5.19559951    -3.07260664    -5.34216010
H      4.19475138    -1.93213325    -3.35269541
H      2.85728880    -0.00504293    -2.47592419

