%chk=cand10_PAPU-0136_conf02.chk
%nprocshared=8
%mem=16GB
#P B3LYP/6-31G(d) SCRF=(PCM,Solvent=Water) Pop=MK NoSymm

cand10_PAPU-0136 conformer 2 (Boltzmann pop=0.244)

0 1
C     -8.94264165    -2.58978464    -1.87984945
C     -8.14234402    -1.81556438    -0.84385075
C     -8.78797037    -0.47763952    -0.47411622
C     -8.04449262     0.28389312     0.62793622
C     -6.62281470     0.68451678     0.23135346
C     -5.89588186     1.45885186     1.27557566
C     -4.56977968     1.57587854     1.30123813
C     -3.84463630     2.33628375     2.30580391
C     -4.21342526     2.39166180     3.58597243
C     -3.44262276     3.08714579     4.67196393
O     -4.26632284     3.42910742     5.79032770
C     -2.20290463     2.28488430     5.10625667
C     -1.25513958     2.04711779     3.97919041
C     -1.18743636     0.90661328     3.29151150
C     -0.36318872     0.76012337     2.11982903
C     -0.22127983    -0.37279524     1.42853836
C      0.62106241    -0.47571387     0.22806761
O      0.86788975     0.52285330    -0.42453474
O      1.09119588    -1.73968823    -0.04952153
C      1.82593159    -1.80484788    -1.27253095
C      3.05156977    -0.84741625    -1.22750459
O      4.12515401    -1.49843617    -0.55028440
C      3.54362993    -0.28767508    -2.60133835
C      4.33933684     0.97223303    -2.34617605
C      5.70836561     0.85543427    -2.02335031
O      6.30830165    -0.39486860    -2.02331597
C      6.43539361     1.99325745    -1.69796029
C      5.83441251     3.24376349    -1.67205477
O      6.53174367     4.39193831    -1.34890120
C      4.47899382     3.33688399    -1.98733771
C      3.73026459     2.22607501    -2.31755595
C      2.29899788     2.42349939    -2.72276358
O      1.76224536     3.68675855    -2.36373767
O      2.48027639    -0.06902605    -3.55249871
C      1.65650758    -1.22154337    -3.75649142
C      0.72592664    -0.98904561    -4.94201324
O      1.44157120    -0.73328809    -6.12503542
C      0.87493396    -1.57713252    -2.47003001
O      0.07166740    -2.74170800    -2.68659772
C     -1.30882000    -2.44010632    -2.60259340
O     -1.66228691    -1.21515153    -3.25821600
C     -3.08507112    -1.01932940    -3.41053219
C     -3.32275223     0.45076126    -3.78973484
O     -2.63554627     1.34370664    -2.93058295
C     -3.88620859    -1.50586365    -2.14658201
O     -5.08390727    -0.78537201    -1.92883964
C     -2.98356413    -1.50435830    -0.88539443
O     -2.56389867    -0.19742460    -0.55595006
C     -1.78645027    -2.46487107    -1.11823909
O     -2.14288707    -3.79011259    -0.73786857
C     -1.50562984    -4.17672016     0.46680524
O     -1.51147225    -3.18678679     1.51010124
C     -1.04813098    -3.71476106     2.76189715
C     -1.18107663    -2.67598923     3.88142654
O     -2.39250252    -1.95835818     3.83937997
C      0.42398703    -4.20359834     2.63858739
O      1.31442710    -3.11719797     2.49093697
C      0.56590145    -5.22692265     1.48241047
O      1.91968821    -5.57273445     1.25444719
C     -0.06380022    -4.66714085     0.19036248
O     -0.03166904    -5.65292716    -0.82460548
C     -3.46961910     2.12931809    -2.17142814
O     -4.68205167     2.04397190    -2.16195913
C     -2.77356279     3.09311346    -1.27990662
C     -3.40365295     4.23691478    -0.81185132
C     -2.73051640     5.10892565     0.02025061
C     -1.43153772     4.84516928     0.39726718
C     -0.78522101     3.69786996    -0.04879616
N      0.51539133     3.34476196     0.34092300
C      1.36628147     4.05484060     1.18384116
O      1.07770517     5.16121266     1.61139073
C      2.64036928     3.45082180     1.57012323
C      2.95963768     2.17319607     1.33751235
C      4.18446847     1.52232611     1.77789164
C      5.35873840     2.23830457     2.00526441
C      6.49420584     1.59375923     2.44531354
C      6.47896987     0.23588310     2.66812021
C      5.32403838    -0.51814958     2.44741389
O      5.39179561    -1.89128795     2.70425972
C      4.19413029    -2.60947708     2.42617627
C      4.31715692    -4.07060029     2.70202867
C      5.26932964    -4.59449905     3.44839680
C      4.18739862     0.14860856     1.99285003
C     -1.47461484     2.83408299    -0.89087320
H     -9.94795194    -2.81097660    -1.51818587
H     -9.04990232    -2.01776149    -2.80270089
H     -8.46912561    -3.53967967    -2.13585903
H     -7.12602680    -1.64349218    -1.21868704
H     -8.01551387    -2.41977736     0.06328415
H     -8.85581187     0.15037457    -1.36999967
H     -9.82659211    -0.65483896    -0.16821020
H     -8.60627890     1.18389152     0.90651410
H     -8.00790444    -0.32701362     1.53750447
H     -6.04203294    -0.21503198     0.00248135
H     -6.64380332     1.26731071    -0.69724623
H     -6.48493873     1.98418777     2.01002055
H     -3.97834767     1.06636198     0.55403305
H     -2.95238567     2.84478287     1.97028691
H     -5.08849927     1.84720135     3.89534688
H     -3.10407367     4.05601576     4.27092657
H     -4.60677149     2.62652665     6.22530024
H     -2.52701451     1.32507559     5.51929347
H     -1.69814554     2.80701049     5.92613027
H     -0.66609587     2.88737045     3.64539502
H     -1.78507741     0.05701213     3.58211536
H      0.12718093     1.65422708     1.77705227
H     -0.76242334    -1.25822029     1.71446542
H      2.21275036    -2.83017524    -1.34068479
H      2.77567250     0.00663634    -0.60169169
H      4.97052157    -1.19968852    -0.95709148
H      4.21170953    -1.02735269    -3.06181692
H      7.27183558    -0.31742530    -1.91417552
H      7.47566638     1.89706683    -1.44758135
H      7.48099043     4.20501768    -1.23811921
H      4.01414079     4.30602650    -1.98257667
H      2.22455985     2.35041474    -3.81359936
H      1.66813663     1.62224618    -2.31603038
H      1.36438543     3.64134472    -1.46214231
H      2.33064571    -2.05537956    -3.99633745
H      0.05894841    -0.14417865    -4.73668512
H      0.08999561    -1.86454431    -5.11420519
H      2.14067789    -0.07563103    -5.95520165
H      0.19843184    -0.74878338    -2.21639463
H     -1.82824760    -3.24587990    -3.13843061
H     -3.38269603    -1.64846356    -4.26382870
H     -2.91886120     0.64231386    -4.79126174
H     -4.38842500     0.70203656    -3.82709249
H     -4.20629099    -2.54631484    -2.31683005
H     -4.89899064     0.18215287    -1.96533078
H     -3.55872267    -1.86992310    -0.02160433
H     -2.45543566     0.29473253    -1.40087019
H     -0.94937986    -2.15812349    -0.48293912
H     -2.09175747    -5.03012654     0.83605355
H     -1.70352133    -4.56897959     2.98598894
H     -0.37352894    -1.94284422     3.78804289
H     -1.06490954    -3.13518313     4.87063454
H     -3.14970294    -2.56579119     3.75928736
H      0.72479884    -4.68726977     3.58108320
H      1.18689062    -2.70249143     1.61106219
H      0.03305773    -6.15221330     1.75023767
H      1.98149210    -6.12171241     0.45159436
H      0.54105241    -3.82451543    -0.16633410
H     -0.51068476    -5.33067712    -1.61062249
H     -4.42105142     4.42908939    -1.10837582
H     -3.22376064     5.99845410     0.37721840
H     -0.89598035     5.51760110     1.04343741
H      0.75069964     2.38749577     0.08794158
H      3.31131678     4.08388588     2.12484294
H      2.25096197     1.54589729     0.82878362
H      5.37800413     3.29801815     1.81791696
H      7.39735293     2.15574562     2.61967007
H      7.36026332    -0.27404628     3.01619258
H      3.39701355    -2.18147365     3.04571440
H      3.94389412    -2.44176697     1.37205258
H      3.55057219    -4.71152274     2.29037140
H      6.03971835    -3.98848122     3.88918961
H      5.32073897    -5.65050457     3.64261510
H      3.28452085    -0.40045552     1.80148548
H     -0.98786616     1.94002289    -1.23572466

