%chk=cand10_PAPU-0136_conf01.chk
%nprocshared=8
%mem=16GB
#P B3LYP/6-31G(d) SCRF=(PCM,Solvent=Water) Pop=MK NoSymm

cand10_PAPU-0136 conformer 1 (Boltzmann pop=0.274)

0 1
C     -9.10404445    -2.33972522    -2.02660484
C     -8.29324890    -1.60786301    -0.96821751
C     -8.86985458    -0.23177996    -0.62514498
C     -8.12363821     0.48801623     0.50277444
C     -6.66358287     0.78999420     0.16299516
C     -5.92980985     1.53017331     1.22698622
C     -4.60087893     1.59339516     1.28187722
C     -3.86780782     2.32386962     2.30295565
C     -4.25376156     2.38185314     3.57786668
C     -3.48321731     3.05414086     4.67866017
O     -4.31028601     3.38279661     5.79862551
C     -2.25008573     2.23810831     5.10628374
C     -1.29668201     2.01422131     3.98119136
C     -1.20254526     0.87123475     3.30094473
C     -0.37426098     0.73567948     2.13074134
C     -0.20497855    -0.39966978     1.44975994
C      0.63616943    -0.49350325     0.24798308
O      0.87149938     0.50739600    -0.40520933
O      1.11800322    -1.75282645    -0.03071060
C      1.84346947    -1.81276901    -1.25935518
C      3.06062435    -0.84442306    -1.22599991
O      4.14539419    -1.48424773    -0.55587768
C      3.53682159    -0.28446753    -2.60524681
C      4.32481621     0.98203079    -2.35906036
C      5.69707913     0.87610748    -2.04634487
O      6.30696000    -0.36938723    -2.05116680
C      6.41732573     2.01959639    -1.72574343
C      5.80657258     3.26525081    -1.69503234
O      6.49695206     4.41879729    -1.37614537
C      4.44851911     3.34780864    -2.00179833
C      3.70620797     2.23110507    -2.32664099
C      2.27086100     2.41731190    -2.72260596
O      1.72686975     3.67638554    -2.36020210
O      2.46394847    -0.07661068    -3.54806664
C      1.64727500    -1.23597007    -3.74262296
C      0.70486188    -1.01248120    -4.92051370
O      1.40823771    -0.75578972    -6.11066637
C      0.87996065    -1.59495179    -2.44851521
O      0.08311406    -2.76600475    -2.65394435
C     -1.29883007    -2.47221560    -2.56479025
O     -1.66144763    -1.25280233    -3.22506938
C     -3.08553436    -1.06406104    -3.37219196
C     -3.32845773     0.40265184    -3.76062652
O     -2.63985584     1.30206465    -2.90935486
C     -3.87964396    -1.54414796    -2.10106439
O     -5.07558069    -0.82153244    -1.88004091
C     -2.97022358    -1.53469568    -0.84477816
O     -2.55527016    -0.22419810    -0.52318202
C     -1.77022939    -2.49209321    -1.07826084
O     -2.11950999    -3.81772088    -0.69143132
C     -1.46165734    -4.20593033     0.50172184
O     -1.46061520    -3.22172343     1.55022306
C     -0.97781733    -3.75325178     2.79310917
C     -1.10453110    -2.72105119     3.91935079
O     -2.32411903    -2.01655885     3.89866204
C      0.49611953    -4.23065204     2.64905970
O      1.37700297    -3.13705855     2.49829212
C      0.63168198    -5.24550521     1.48455213
O      1.98563833    -5.57717398     1.23685771
C     -0.02008300    -4.68458932     0.20370854
O      0.00529425    -5.66625405    -0.81547140
C     -3.47356889     2.09434723    -2.15723320
O     -4.68604024     2.00962612    -2.14887141
C     -2.77855324     3.06454217    -1.27185130
C     -3.40934234     4.21216486    -0.81414497
C     -2.73884264     5.08921401     0.01471910
C     -1.44152650     4.82703591     0.39838198
C     -0.79423883     3.67649122    -0.03780526
N      0.50627692     3.32760176     0.35597692
C      1.35586705     4.04483465     1.19399932
O      1.06277393     5.15101273     1.61892225
C      2.63384240     3.44832496     1.57888887
C      2.95904899     2.17163054     1.34964076
C      4.19220935     1.53094609     1.78140979
C      5.36127153     2.25729426     2.00295393
C      6.50599798     1.62223935     2.43259167
C      6.50558611     0.26342687     2.65004406
C      5.35654679    -0.50102482     2.43424418
O      5.43990920    -1.87454249     2.68461551
C      4.24797490    -2.60368503     2.41067408
C      4.38942876    -4.06554473     2.67354560
C      5.35413014    -4.58459075     3.40715346
C      4.20991285     0.15653133     1.99136630
C     -1.48109778     2.80738257    -0.87651258
H    -10.13196846    -2.49869059    -1.69695148
H     -9.14738641    -1.76794235    -2.95494523
H     -8.67991255    -3.31764018    -2.26296845
H     -7.25653927    -1.49922605    -1.31009626
H     -8.23253114    -2.21273760    -0.05463363
H     -8.86541790     0.39519104    -1.52439283
H     -9.92819176    -0.34401350    -0.35854248
H     -8.63516909     1.42568789     0.75272257
H     -8.16470221    -0.11626442     1.41650721
H     -6.13406864    -0.14845235    -0.03166666
H     -6.60931235     1.36048665    -0.77186360
H     -6.51297812     2.07593472     1.95117285
H     -4.01391219     1.06425980     0.54482489
H     -2.95759235     2.81028849     1.98339501
H     -5.14935960     1.86184446     3.87020603
H     -3.13716572     4.02741953     4.29502806
H     -4.65462474     2.57515424     6.22108113
H     -2.58167427     1.27333786     5.50144328
H     -1.74705804     2.74375861     5.93746420
H     -0.72471736     2.86479406     3.64408415
H     -1.77913561     0.00949287     3.59824366
H      0.09308964     1.63867201     1.77886527
H     -0.72539753    -1.29482430     1.74367575
H      2.23900756    -2.83463035    -1.32957748
H      2.78188697     0.00867418    -0.60002007
H      4.98492619    -1.17843092    -0.96952883
H      4.20681038    -1.02012145    -3.06935058
H      7.27055036    -0.28431506    -1.94846425
H      7.46008897     1.93159410    -1.48284545
H      7.44806261     4.23897044    -1.26978139
H      3.97612662     4.31327416    -1.99378185
H      2.19010484     2.34383520    -3.81296981
H      1.64862262     1.61132764    -2.31194701
H      1.33734337     3.62887417    -1.45505727
H      2.32553574    -2.06515846    -3.98684489
H      0.03466886    -0.17105677    -4.71152385
H      0.07270119    -1.89225485    -5.08453044
H      2.10376564    -0.09220914    -5.94953112
H      0.19969983    -0.77106118    -2.19040608
H     -1.81625070    -3.28334004    -3.09439288
H     -3.38473968    -1.69998418    -4.21986849
H     -2.92856756     0.58859114    -4.76480142
H     -4.39489132     0.65101357    -3.79583456
H     -4.20104251    -2.58552235    -2.26300418
H     -4.89057679     0.14547509    -1.92836293
H     -3.54034072    -1.89847231     0.02318322
H     -2.45210012     0.26419114    -1.37108132
H     -0.93172583    -2.17924491    -0.44786914
H     -2.03645685    -5.06548236     0.87453516
H     -1.62424682    -4.61324397     3.02105778
H     -0.30666313    -1.97848077     3.81726805
H     -0.96879152    -3.18361859     4.90447727
H     -3.07540057    -2.63159963     3.82173744
H      0.81152553    -4.71829315     3.58473595
H      1.23812377    -2.71961990     1.62150663
H      0.11109559    -6.17736045     1.75368883
H      2.04214561    -6.12107179     0.43015735
H      0.57380307    -3.83621531    -0.15767087
H     -0.48313363    -5.34310705    -1.59531631
H     -4.42530186     4.40335716    -1.11609727
H     -3.23268693     5.98161278     0.36360683
H     -0.90782375     5.50361670     1.04173533
H      0.74666384     2.37135573     0.10397889
H      3.30430335     4.08765044     2.12689500
H      2.25072792     1.53808670     0.84817835
H      5.36931773     3.31777820     1.81918988
H      7.40494939     2.19234542     2.60240127
H      7.39440572    -0.23921888     2.98945632
H      3.45147309    -2.18922929     3.04011408
H      3.98717638    -2.43054933     1.36007143
H      3.62622229    -4.71161623     2.26354667
H      6.12045036    -3.97306187     3.84760204
H      5.41869051    -5.64148736     3.59306004
H      3.31108553    -0.40059146     1.80421010
H     -0.99331671     1.91105869    -1.21387035

