%chk=cand07_biphenyl_4CONH2_conf02.chk
%nprocshared=8
%mem=16GB
#P B3LYP/6-31G(d) SCRF=(PCM,Solvent=Water) Pop=MK NoSymm

cand07_biphenyl_4CONH2 conformer 2 (Boltzmann pop=0.123)

0 1
C     -2.79407380     5.74821372    -1.12832400
C     -1.43111206     5.20814036    -0.72253640
C     -0.83347191     4.26967671    -1.77197799
C      0.55631343     3.73900449    -1.40448443
C      1.68552425     4.76511163    -1.52796013
C      3.00588408     4.19284222    -1.14020346
C      4.11045779     4.91392081    -0.95324895
C      5.35237487     4.32720437    -0.47956850
C      6.25665019     4.99405697     0.24068677
C      7.39240486     4.32369521     0.96480124
O      8.57787225     5.12032582     1.00011467
C      6.96789530     3.85625203     2.37277439
C      5.67698034     3.10461301     2.34556620
C      4.49135773     3.67562372     2.58154424
C      3.21595224     3.07020322     2.26381210
C      3.08533203     1.90521526     1.62932792
C      1.79185464     1.39599962     1.17028862
O      0.75737059     1.83546390     1.63962810
O      1.88196339     0.42931699     0.19119640
C      0.68005978    -0.32006966     0.03695309
C     -0.47381571     0.55082209    -0.49515515
O     -0.20696412     0.90713487    -1.85575934
C     -1.85251759    -0.15263008    -0.37395117
C     -2.93947324     0.83113992    -0.72414608
C     -3.33860114     0.92918857    -2.07424900
O     -2.73409922     0.12783278    -3.03159027
C     -4.32522597     1.84167180    -2.42459434
C     -4.92341173     2.65888536    -1.47726043
O     -5.94832092     3.51510398    -1.85232578
C     -4.47172771     2.58587539    -0.15997730
C     -3.48283200     1.69858836     0.22065566
C     -2.98723595     1.76228051     1.63580161
O     -2.02206298     2.78199907     1.85479990
O     -2.05272085    -0.79304454     0.91016108
C     -1.03203328    -1.75144596     1.23194286
C     -1.36734021    -2.49526629     2.51864302
O     -1.44267369    -1.63802613     3.62479327
C      0.33155180    -1.04566665     1.35221122
O      1.39828110    -1.88514929     1.79196480
C      1.62050579    -3.02144497     0.96089615
O      0.62234771    -4.04303452     1.08882472
C      0.74227727    -5.05685177     0.08475801
C     -0.39807425    -6.06858873     0.22969434
O     -1.65092585    -5.44758118     0.38251233
C      2.12386422    -5.76577924     0.16732843
O      2.21765782    -6.57309949     1.32469418
C      3.29274171    -4.74959225     0.15205666
O      4.49478372    -5.42857453     0.46663915
C      3.03290109    -3.62488862     1.17604885
O      4.08366131    -2.66891992     1.14802318
C      3.90944728    -1.70443836     0.12559881
O      3.60001705    -2.24545492    -1.16977402
C      3.32101666    -1.23837399    -2.15102609
C      2.87627188    -1.88822687    -3.46473659
O      3.88635675    -2.70701525    -4.01665384
C      4.55304519    -0.31539895    -2.33086062
O      5.67843939    -1.04605033    -2.78050247
C      4.89129704     0.35597713    -0.98093498
O      6.00757685     1.21214762    -1.11185303
C      5.13225682    -0.75322877     0.06661608
O      5.41878793    -0.20963730     1.34537341
C     -2.01798604    -4.76482115    -0.74680275
O     -1.42317388    -4.80682391    -1.80761275
C     -3.20153037    -3.88370098    -0.58633596
C     -3.93835968    -3.90827115     0.58945570
C     -4.91032816    -2.96466787     0.82722288
C     -5.18107325    -1.96866145    -0.11140086
C     -6.06202003    -0.82863955     0.21662467
C     -6.83057836    -0.19841905    -0.76203581
C     -7.52086506     0.95790915    -0.47992571
C     -7.46981901     1.52111862     0.78931554
C     -8.09040557     2.85130776     1.05235288
N     -9.09718346     2.91444181     1.97497602
O     -7.68146799     3.82989362     0.44541856
C     -6.73960647     0.87790964     1.78016743
C     -6.04765654    -0.27621491     1.49793473
C     -4.48736804    -2.00173709    -1.32174535
C     -3.50910958    -2.93980424    -1.55332727
H     -3.50137821     4.93841738    -1.31213974
H     -3.22508649     6.39275968    -0.35967618
H     -2.72974041     6.33089649    -2.04863177
H     -1.50760318     4.67690267     0.23509356
H     -0.74075565     6.03905690    -0.53434426
H     -0.78518990     4.78026396    -2.74058753
H     -1.52477867     3.43090238    -1.92414792
H      0.80266321     2.87239611    -2.03114827
H      0.53729006     3.35315694    -0.37926409
H      1.73793234     5.14540593    -2.55444163
H      1.47151450     5.63618177    -0.89887943
H      3.03915274     3.12853048    -0.96663983
H      4.07986734     5.98222718    -1.09404682
H      5.48138639     3.26960893    -0.65917663
H      6.09421742     6.03758427     0.44456952
H      7.67551831     3.43481473     0.37813929
H      8.42131345     5.95417270     1.47843417
H      7.76317169     3.25209375     2.82193952
H      6.86076225     4.73178905     3.01918073
H      5.70825456     2.09948516     1.95624893
H      4.46452267     4.69413908     2.93939560
H      2.31831221     3.63250780     2.47393312
H      3.94270065     1.29035714     1.42079221
H      0.87201555    -1.07065319    -0.73724940
H     -0.50892495     1.48594590     0.07164459
H     -0.98632765     0.65082180    -2.40073085
H     -1.88480856    -0.96252305    -1.11344159
H     -3.10135664     0.30948571    -3.91450110
H     -4.65715383     1.91485656    -3.44243442
H     -6.51639982     3.71688697    -1.07650522
H     -4.90351105     3.24302727     0.57277488
H     -2.58690533     0.79604976     1.95701603
H     -3.82891518     1.97719154     2.30497647
H     -1.09517395     2.43801111     1.80831195
H     -0.98895753    -2.46331313     0.39684144
H     -2.31595324    -3.03415166     2.42514938
H     -0.58193802    -3.22727776     2.73908233
H     -2.07804815    -0.91685545     3.44699307
H      0.23828287    -0.28273445     2.13897646
H      1.57729561    -2.68884418    -0.08131335
H      0.64048115    -4.53870179    -0.88105315
H     -0.23048036    -6.66270710     1.13547663
H     -0.44563808    -6.75565687    -0.62341334
H      2.22550975    -6.44600973    -0.69378204
H      3.14892282    -6.84294880     1.45159675
H      3.40808263    -4.31178115    -0.85080696
H      5.21654700    -4.78730036     0.58291128
H      3.05864055    -4.06612196     2.18174567
H      3.04160453    -1.11631640     0.44911343
H      2.49932518    -0.63006096    -1.74958301
H      2.60551883    -1.11780498    -4.19606908
H      1.98739545    -2.50344731    -3.27997167
H      3.57048725    -3.20747028    -4.78868927
H      4.34656300     0.45525108    -3.09055441
H      5.34040748    -1.78783533    -3.31810785
H      4.04848657     0.97559202    -0.65023444
H      6.71998277     0.72384273    -1.56185809
H      6.00761246    -1.33414289    -0.25393668
H      5.46014203    -0.92853057     2.00135883
H     -3.70797170    -4.65705678     1.32897547
H     -5.45247979    -2.97363459     1.75739372
H     -6.86251581    -0.61454056    -1.75451512
H     -8.07949931     1.46083039    -1.25111712
H     -9.56184117     3.77281665     2.15670072
H     -9.46972108     2.10540503     2.42355998
H     -6.68575749     1.31976996     2.76048945
H     -5.43883237    -0.73421396     2.25832731
H     -4.66659586    -1.22942443    -2.04891147
H     -2.93129396    -2.92010261    -2.46265837

