%chk=cand07_biphenyl_4CONH2_conf01.chk
%nprocshared=8
%mem=16GB
#P B3LYP/6-31G(d) SCRF=(PCM,Solvent=Water) Pop=MK NoSymm

cand07_biphenyl_4CONH2 conformer 1 (Boltzmann pop=0.306)

0 1
C     -2.78987681     5.73845729    -1.11070731
C     -1.42826355     5.18719880    -0.71539892
C     -0.82791945     4.27557791    -1.78656895
C      0.56287721     3.73950215    -1.43019814
C      1.69074864     4.76880528    -1.53616241
C      3.01039165     4.19389616    -1.14980866
C      4.11348645     4.91430276    -0.95183568
C      5.35268127     4.32559323    -0.47336789
C      6.25090081     4.98928715     0.25743642
C      7.37961033     4.31578335     0.98960345
O      8.56573228     5.11087920     1.03719844
C      6.94165963     3.84609858     2.39273054
C      5.64987516     3.09663481     2.35169847
C      4.46264914     3.66939377     2.57520885
C      3.18988264     3.06674209     2.24173949
C      3.06460626     1.90408780     1.60184642
C      1.77557160     1.39795485     1.12728547
O      0.73680719     1.84432062     1.57977927
O      1.87272258     0.42607343     0.15400712
C      0.67000052    -0.32087584    -0.00971671
C     -0.47439286     0.54695200    -0.56398295
O     -0.18356830     0.90706880    -1.91864782
C     -1.85161876    -0.16271460    -0.47577197
C     -2.93385019     0.83708726    -0.78944039
C     -3.33845887     0.98606525    -2.13247080
O     -2.73646062     0.22084021    -3.12008031
C     -4.32754728     1.91054525    -2.44144121
C     -4.92056413     2.68957787    -1.45904643
O     -5.94608369     3.56086223    -1.79452603
C     -4.46342526     2.56456490    -0.14737842
C     -3.47445132     1.66209840     0.19475053
C     -2.98080059     1.66688339     1.61451280
O     -2.04438240     2.70085444     1.88189322
O     -2.07963520    -0.82670726     0.78903189
C     -1.05363082    -1.75393607     1.17357626
C     -1.41843083    -2.41851771     2.49627599
O     -1.51724017    -1.46337973     3.52630325
C      0.30010810    -1.03258436     1.30645140
O      1.36429770    -1.85995734     1.77502870
C      1.60284757    -3.00665716     0.96209441
O      0.60668421    -4.03102108     1.08956729
C      0.74391461    -5.05655658     0.09894212
C     -0.39094243    -6.07541077     0.23919266
O     -1.65054345    -5.46517039     0.37810337
C      2.12707483    -5.75865639     0.20778353
O      2.20928262    -6.55119938     1.37632782
C      3.29179403    -4.73834312     0.19458559
O      4.49288309    -5.40863603     0.53150721
C      3.01475730    -3.60271229     1.20183024
O      4.06421970    -2.64536002     1.17464369
C      3.90202323    -1.69463238     0.13746314
O      3.60220829    -2.24894329    -1.15463472
C      3.33212498    -1.25046456    -2.14742958
C      2.89315818    -1.91048699    -3.45797154
O      3.90392541    -2.73685489    -3.99714960
C      4.56681439    -0.33101665    -2.32804432
O      5.69348688    -1.06736189    -2.76513595
C      4.89732880     0.35218535    -0.98203467
O      6.01585002     1.20568227    -1.11242795
C      5.12827655    -0.74800146     0.07715772
O      5.41002213    -0.19559170     1.35314141
C     -2.01235717    -4.78298278    -0.75373668
O     -1.41182233    -4.82242879    -1.81135777
C     -3.19740132    -3.90318913    -0.59559981
C     -3.93520965    -3.93366596     0.57944206
C     -4.90123127    -2.98632406     0.82478925
C     -5.16311205    -1.97914057    -0.10421596
C     -6.03264637    -0.83533105     0.23971670
C     -6.80917494    -0.19555687    -0.72614844
C     -7.49575283     0.95854314    -0.42674333
C     -7.43243954     1.50940241     0.84736977
C     -8.05307342     2.83565295     1.12971425
N     -9.06186779     2.88418046     2.05102646
O     -7.64328824     3.82327062     0.53822084
C     -6.69118207     0.85814520     1.82475847
C     -6.00210281    -0.29335965     1.52533703
C     -4.47041880    -2.00593354    -1.31553756
C     -3.49958119    -2.94998213    -1.55568652
H     -2.72335901     6.34126944    -2.01795006
H     -3.49861594     4.93416150    -1.31311012
H     -3.22057726     6.36669038    -0.32837956
H     -1.50749503     4.63228426     0.22861197
H     -0.73789677     6.01281901    -0.50460259
H     -0.77959339     4.80940918    -2.74265994
H     -1.51745366     3.43934357    -1.95969647
H      0.80986852     2.88415561    -2.07186925
H      0.54461708     3.33595250    -0.41177692
H      1.74667881     5.16220653    -2.55747628
H      1.47270085     5.63149919    -0.89706388
H      3.04354534     3.12834237    -0.98414379
H      4.08257827     5.98368685    -1.08414833
H      5.48311623     3.26877039    -0.65646064
H      6.08644793     6.03179300     0.46503140
H      7.66644500     3.42773011     0.40354536
H      8.40481136     5.94469231     1.51427917
H      7.73180256     3.23968866     2.84783545
H      6.82985060     4.72036969     3.04003385
H      5.68355816     2.09194308     1.96150203
H      4.43358960     4.68757251     2.93383923
H      2.29085223     3.62972282     2.44387746
H      3.92346989     1.28872810     1.40161142
H      0.86913542    -1.07999766    -0.77392119
H     -0.52729271     1.47970305     0.00601131
H     -0.97007144     0.69041154    -2.47106426
H     -1.88036546    -0.95110072    -1.23800728
H     -3.11510207     0.42422906    -3.99321252
H     -4.66441535     2.02398092    -3.45394202
H     -6.50197254     3.74223601    -1.00497247
H     -4.89211543     3.19214103     0.61259799
H     -2.55536136     0.69843718     1.90161576
H     -3.82869608     1.83062646     2.29002966
H     -1.10939324     2.38587137     1.80525016
H     -0.98401968    -2.50817851     0.37858455
H     -2.37770069    -2.93736636     2.40031186
H     -0.64398422    -3.14910263     2.75994473
H     -1.72802384    -1.86878926     4.38718194
H      0.18256933    -0.26294709     2.08398807
H      1.57187229    -2.68712915    -0.08462431
H      0.65230667    -4.55008360    -0.87401921
H     -0.22659915    -6.66320398     1.14967542
H     -0.42525246    -6.76799878    -0.61001611
H      2.24217804    -6.44908174    -0.64347188
H      3.13996214    -6.81603419     1.51767407
H      3.41734801    -4.31199064    -0.81193899
H      5.21027837    -4.76283814     0.65079027
H      3.02894640    -4.03203272     2.21284444
H      3.03255498    -1.10122253     0.44629316
H      2.50958300    -0.63640026    -1.75686250
H      2.62857449    -1.14554156    -4.19728581
H      2.00125937    -2.52129023    -3.27308721
H      3.59078415    -3.24209577    -4.76731104
H      4.36557037     0.43333825    -3.09547912
H      5.35672121    -1.81278400    -3.29864688
H      4.05322947     0.97633257    -0.66351892
H      6.73106597     0.71235349    -1.55239316
H      6.00314210    -1.33489867    -0.23368345
H      5.44346079    -0.91003503     2.01459249
H     -3.70660301    -4.68725561     1.31466755
H     -5.44286174    -2.99856329     1.75525496
H     -6.85065788    -0.60296476    -1.72188869
H     -8.06183757     1.46881036    -1.18759791
H     -9.52777146     3.73931596     2.24457448
H     -9.43522962     2.06790354     2.48559553
H     -6.62710493     1.29166082     2.80820773
H     -5.38138560    -0.75582399     2.27392850
H     -4.64175425    -1.22348024    -2.03383411
H     -2.92195602    -2.92705866    -2.46501417

