%chk=cand07_biphenyl_4CONH2_conf03.chk
%nprocshared=8
%mem=16GB
#P B3LYP/6-31G(d) SCRF=(PCM,Solvent=Water) Pop=MK NoSymm

cand07_biphenyl_4CONH2 conformer 3 (Boltzmann pop=0.106)

0 1
C     -2.80272202     5.21190557     0.11511983
C     -1.40104825     4.67015464     0.34460786
C     -0.51772234     4.76012871    -0.90067925
C      0.90834017     4.26523193    -0.66141034
C      1.80090711     4.35674985    -1.90098677
C      3.18487056     3.86996358    -1.63304085
C      4.17488485     4.65216536    -1.20269823
C      5.46437604     4.13517542    -0.78593942
C      6.36632807     4.85500196    -0.11637048
C      7.57664100     4.25842853     0.54812726
O      8.71255559     5.12718190     0.49789865
C      7.26700077     3.86224208     2.00714421
C      5.97882883     3.11509689     2.12348082
C      4.81865092     3.70061884     2.43717204
C      3.52014694     3.08943329     2.25195824
C      3.33003436     1.93008665     1.62191182
C      1.99647067     1.41283252     1.31015231
O      1.02578748     1.80892808     1.92948637
O      1.96890872     0.49331867     0.28738940
C      0.71763238    -0.17605527     0.17992880
C     -0.43423345     0.77828309    -0.19015452
O     -0.17264517     1.43575891    -1.43216451
C     -1.77783829     0.00176316    -0.22526663
C     -2.91419983     0.89827052    -0.64669738
C     -3.17845777     1.02871993    -2.02646408
O     -2.39443331     0.34389708    -2.94360778
C     -4.21685787     1.85245766    -2.44289353
C     -5.00377296     2.54390272    -1.53347670
O     -6.05512959     3.32167884    -1.98880222
C     -4.70285013     2.42507919    -0.17729349
C     -3.65864373     1.63861710     0.26769140
C     -3.36806076     1.61943073     1.73753525
O     -3.46122126     2.90987457     2.31964018
O     -2.01087340    -0.70703536     1.01588823
C     -0.98062713    -1.66746740     1.31334398
C     -1.32493352    -2.45244764     2.57209943
O     -1.45625184    -1.62042474     3.69192201
C      0.38684913    -0.96647457     1.46279614
O      1.45960133    -1.81774601     1.86627121
C      1.66989499    -2.94101854     1.01512234
O      0.66105723    -3.95406411     1.13084494
C      0.78500714    -4.96834516     0.12840299
C     -0.37840699    -5.95686944     0.23343608
O     -1.62379778    -5.31463251     0.34993566
C      2.14704640    -5.70543294     0.24610553
O      2.20608524    -6.49319581     1.41921071
C      3.33070015    -4.70950534     0.23212755
O      4.51717581    -5.40227454     0.57494094
C      3.07707586    -3.56200651     1.23291190
O      4.13873871    -2.62096869     1.17509192
C      3.96340402    -1.68615333     0.12650969
O      3.56203854    -2.25542436    -1.13064940
C      3.26947815    -1.26869878    -2.12669330
C      2.71334016    -1.94060906    -3.38604107
O      3.64099791    -2.83905285    -3.95875396
C      4.53204905    -0.41620970    -2.41077154
O      5.58863855    -1.21813443    -2.90390794
C      4.98587612     0.27815532    -1.10657415
O      6.13695608     1.06543315    -1.33418560
C      5.22778213    -0.80355547    -0.03159125
O      5.60796359    -0.22941763     1.20882680
C     -1.92777691    -4.59139331    -0.77240946
O     -1.27266373    -4.58657071    -1.79806088
C     -3.13363452    -3.73613180    -0.65181318
C     -3.94965071    -3.83090755     0.46623987
C     -4.98658628    -2.94761349     0.65378012
C     -5.24130679    -1.94172122    -0.27805377
C     -6.22821537    -0.87730726    -0.00672046
C     -6.92718822    -0.26038012    -1.04445171
C     -7.69748547     0.85452063    -0.80926286
C     -7.79598595     1.38843812     0.46984357
C     -8.45719652     2.70744421     0.68491893
N     -9.58674182     2.74119110     1.45354982
O     -7.96664842     3.70203914     0.17155123
C     -7.14967641     0.74690904     1.51862512
C     -6.38248446    -0.36977165     1.28421548
C     -4.44714992    -1.89027283    -1.42425750
C     -3.40710635    -2.77019932    -1.60644923
H     -2.78172917     6.27270709    -0.13914727
H     -3.29406021     4.69348923    -0.70958239
H     -3.43313787     5.09444053     0.99921230
H     -1.45320251     3.62690371     0.67875054
H     -0.92036988     5.20695719     1.17202442
H     -0.49144686     5.79595935    -1.25845757
H     -0.97363976     4.18535795    -1.71537347
H      0.88274845     3.22616643    -0.31414707
H      1.36374017     4.82956142     0.16046919
H      1.35390322     3.78204895    -2.72098832
H      1.83857757     5.39189483    -2.25909839
H      3.34709242     2.80560216    -1.69085516
H      4.00633819     5.71111607    -1.09020739
H      5.64264769     3.08587009    -0.96731934
H      6.16221003     5.89009896     0.09414888
H      7.85071379     3.34403792    -0.00321643
H      8.90639393     5.40121301    -0.41517955
H      8.09787239     3.28347559     2.42407307
H      7.21552982     4.77655026     2.60591927
H      5.97523947     2.09517129     1.77337744
H      4.82390658     4.73165962     2.75837528
H      2.64701939     3.64076419     2.56826678
H      4.16354362     1.32633770     1.31099506
H      0.81368005    -0.88781330    -0.64872067
H     -0.49746649     1.55921661     0.57672680
H     -0.81259700     1.08870739    -2.09520548
H     -1.68884028    -0.78133179    -0.98974495
H     -2.69629826     0.51778302    -3.85235710
H     -4.43740367     1.95591561    -3.48795052
H     -6.67065823     3.52959697    -1.25208647
H     -5.28715913     2.97228832     0.54010263
H     -2.35896499     1.23276143     1.91633479
H     -4.07282229     0.94460639     2.23613005
H     -3.34691191     2.88285669     3.28617605
H     -0.93008536    -2.35444616     0.45802640
H     -2.25344818    -3.01885262     2.44056603
H     -0.52317353    -3.16491109     2.79653479
H     -2.09992463    -0.90964762     3.50273695
H      0.29232492    -0.24023117     2.28413453
H      1.62740237    -2.58462590    -0.01993456
H      0.72413975    -4.44403288    -0.83743587
H     -0.25006820    -6.55945005     1.14003420
H     -0.41228198    -6.63867464    -0.62453701
H      2.24935495    -6.40249659    -0.60139572
H      3.13076915    -6.77385798     1.56893970
H      3.46798446    -4.29116448    -0.77606627
H      5.24671791    -4.77027007     0.69534013
H      3.10392599    -3.98077029     2.24803196
H      3.14059402    -1.04599968     0.46993759
H      2.50477512    -0.60789268    -1.69582923
H      2.44633557    -1.18431993    -4.13317995
H      1.80248633    -2.49414456    -3.12665215
H      3.24880361    -3.35587215    -4.68388049
H      4.31754287     0.34067742    -3.18188438
H      5.17927613    -1.95761691    -3.39326969
H      4.19907818     0.95306386    -0.74756355
H      6.79757469     0.52243435    -1.79971508
H      6.05453107    -1.44053352    -0.37402282
H      5.65012053    -0.92617444     1.88836873
H     -3.73823521    -4.59240812     1.19829628
H     -5.59973156    -3.01764595     1.53594948
H     -6.83533253    -0.64786140    -2.04479178
H     -8.19254816     1.35582916    -1.62380307
H    -10.07434840     3.59407674     1.59720788
H    -10.01246526     1.91886425     1.82358390
H     -7.21294861     1.16739272     2.50785721
H     -5.84348409    -0.82738262     2.09569459
H     -4.61078779    -1.10391092    -2.14012954
H     -2.76475889    -2.69414262    -2.46815734

