%chk=cand05_biphenyl_4morpholine_conf02.chk
%nprocshared=8
%mem=16GB
#P B3LYP/6-31G(d) SCRF=(PCM,Solvent=Water) Pop=MK NoSymm

cand05_biphenyl_4morpholine conformer 2 (Boltzmann pop=0.099)

0 1
C      0.83118172     9.90649911     0.53644566
C     -0.30471501     8.89553524     0.58122579
C      0.17544255     7.44080075     0.59461182
C      0.87384561     7.01130695    -0.69648585
C      1.31868571     5.54827413    -0.66560408
C      2.01184000     5.09962140    -1.90644177
C      2.67693967     3.94929487    -1.99655483
C      3.30369058     3.48035088    -3.21798459
C      3.98609245     2.33900032    -3.28643316
C      4.55390458     1.76772684    -4.55899619
O      5.38174167     2.72688484    -5.22367694
C      5.29139932     0.43350863    -4.32238523
C      4.48216785    -0.49666173    -3.48412445
C      3.35312623    -1.08890311    -3.88485907
C      2.41765917    -1.66686648    -2.93277988
C      2.29395188    -1.18271081    -1.69398544
C      1.37393979    -1.70045210    -0.67961865
O      0.88069298    -2.80923458    -0.79375385
O      1.17303524    -0.83300762     0.37388220
C      0.32715493    -1.34342939     1.40450856
C     -1.15631327    -1.01385399     1.08806969
O     -1.55797603    -1.62551925    -0.13891700
C     -2.08926282    -1.39038182     2.27158407
C     -3.54668423    -1.13416435     1.94760619
C     -4.16397277     0.08954274     2.28477953
O     -3.53356564     1.06971316     3.02355875
C     -5.47217910     0.33202207     1.88287193
C     -6.20270036    -0.61108271     1.17745291
O     -7.51406139    -0.38066524     0.80136039
C     -5.58482313    -1.82136478     0.86721478
C     -4.28096420    -2.08853562     1.24473311
C     -3.68185914    -3.42582618     0.91740961
O     -3.28842013    -4.16732516     2.05624618
O     -1.64518124    -0.71884905     3.46714291
C     -0.31291353    -1.05635621     3.86990127
C      0.02435958    -0.31028445     5.16747869
O     -0.37217911     1.04063849     5.15192907
C      0.73365662    -0.74506902     2.77404114
O      2.02142339    -1.20389943     3.21292196
C      3.08564871    -0.35037855     2.79560501
O      2.62070875     0.97994961     2.54075332
C      3.62673183     1.90220436     2.13199596
C      3.02689097     3.30838796     2.05665006
O      1.91676177     3.34365627     1.19364603
C      4.18242903     1.41951213     0.77118826
O      3.14631649     1.34056245    -0.17580634
C      4.85051236     0.03097543     0.94895625
O      5.30297513    -0.45340807    -0.30379966
C      3.87231363    -0.98010457     1.60597879
O      4.60457121    -2.10846841     2.09419436
C      4.52016565    -3.28982895     1.30643262
O      5.13250822    -3.22154812     0.01024890
C      5.23475275    -4.51402086    -0.59744461
C      6.09417042    -4.43692451    -1.86395919
O      5.53813464    -3.57003217    -2.81664619
C      3.81505180    -5.09589116    -0.86775020
O      3.11043659    -4.37567447    -1.87150725
C      3.00227924    -5.17046759     0.45521043
O      1.64889452    -5.49099891     0.18915642
C      3.07132003    -3.81935528     1.20486024
O      2.47274870    -3.91607338     2.48285353
C      0.76151936     2.97516915     1.83954559
O      0.63258725     2.88110889     3.04713927
C     -0.39395113     2.66679435     0.95794993
C     -0.19606297     2.03309012    -0.26104321
C     -1.26804311     1.62621068    -1.01865345
C     -2.57580706     1.85574317    -0.58459412
C     -3.72914877     1.28284671    -1.30890654
C     -4.87780717     2.03153200    -1.56931686
C     -5.95725545     1.46687555    -2.20358588
C     -5.94125437     0.12615665    -2.60662685
N     -7.06594533    -0.45622121    -3.23463880
C     -8.43981072    -0.16688554    -2.78209390
C     -8.94619508    -1.32526868    -1.92166427
O     -8.85240424    -2.56998044    -2.60847418
C     -7.52617848    -2.85633531    -3.04197992
C     -6.99329291    -1.74418699    -3.94335566
C     -4.78861509    -0.62048741    -2.34239808
C     -3.71533665    -0.05615998    -1.70200639
C     -2.76196862     2.55043552     0.61157362
C     -1.68785715     2.93593748     1.37718850
H      1.51342595     9.76969291     1.37701269
H      1.41965044     9.80976961    -0.37678819
H      0.46432352    10.93423610     0.57634404
H     -0.97347017     9.04659835    -0.27553729
H     -0.92697236     9.08495226     1.46632463
H     -0.67119073     6.76789345     0.78033045
H      0.85316361     7.28765177     1.44259024
H      0.20597136     7.17562442    -1.55004184
H      1.74472094     7.64929616    -0.88346485
H      0.45185776     4.90195127    -0.48577142
H      1.98135979     5.38675059     0.19222676
H      1.93300373     5.73115656    -2.77712672
H      2.73874591     3.30004914    -1.13657555
H      3.17429658     4.09280499    -4.09722537
H      4.10173797     1.75704855    -2.38661740
H      3.69598065     1.57767209    -5.22546827
H      5.72856525     2.37737335    -6.06501276
H      5.54217738    -0.04193805    -5.27528827
H      6.24680842     0.64859052    -3.83260730
H      4.74985351    -0.56241979    -2.43949805
H      3.06093520    -1.04060810    -4.92277815
H      1.78124275    -2.48023011    -3.24547045
H      2.87601404    -0.33128474    -1.38880003
H      0.46233332    -2.43169869     1.43874616
H     -1.23796128     0.06969136     0.93620311
H     -0.77551011    -2.10080490    -0.49426201
H     -1.97555549    -2.46251259     2.48047861
H     -2.71329072     0.69341851     3.39632432
H     -5.91846059     1.27307824     2.14461392
H     -7.85841089     0.41906007     1.24042084
H     -6.15180296    -2.55970503     0.33051030
H     -2.78629151    -3.29082447     0.30350635
H     -4.37264105    -4.03139599     0.31871480
H     -4.05078997    -4.35053308     2.63464561
H     -0.29548782    -2.14157387     4.04726108
H     -0.50920804    -0.76595362     6.01021819
H      1.09672881    -0.37146604     5.38868767
H      0.03798566     1.56681346     4.42292714
H      0.80315471     0.34479527     2.66597558
H      3.77060580    -0.28855383     3.65354262
H      4.42391416     1.86898321     2.89008390
H      3.76498829     4.02993594     1.68856884
H      2.68930552     3.64091352     3.04574080
H      4.91078372     2.14115770     0.37148913
H      2.47097813     0.71340403     0.17528649
H      5.73331060     0.12193525     1.59986812
H      5.35200723    -1.43455283    -0.24437630
H      3.15826539    -1.33419847     0.86189851
H      5.10244526    -4.02826092     1.87657912
H      5.74230885    -5.15849765     0.13687512
H      7.09631321    -4.06029748    -1.62966258
H      6.21257613    -5.42760888    -2.31999228
H      4.56670172    -3.68172840    -2.75547582
H      3.92222534    -6.11394369    -1.27576281
H      2.38742167    -3.83967445    -1.47662468
H      3.39491694    -5.96187931     1.10963112
H      1.22353834    -4.67795526    -0.15362323
H      2.47997336    -3.10506496     0.62534114
H      2.39133855    -3.00897514     2.85637082
H      0.81028754     1.81824563    -0.57525553
H     -1.10735812     1.09568080    -1.94165919
H     -4.90424939     3.06612092    -1.27215409
H     -6.82059775     2.06963708    -2.42408823
H     -9.07450335    -0.03978948    -3.66402004
H     -8.46390899     0.77707044    -2.23095706
H     -9.99453337    -1.19032702    -1.62654608
H     -8.35678102    -1.41314304    -1.00146493
H     -6.90219724    -2.97031341    -2.14872451
H     -7.54655604    -3.82728070    -3.55343218
H     -7.61056629    -1.66736168    -4.84354384
H     -5.97087324    -1.93268711    -4.28536295
H     -4.76294399    -1.66485288    -2.59743715
H     -2.87168915    -0.66462095    -1.42580040
H     -3.76369991     2.71540660     0.97002834
H     -1.83818330     3.41290825     2.33115501

