%chk=cand05_biphenyl_4morpholine_conf01.chk
%nprocshared=8
%mem=16GB
#P B3LYP/6-31G(d) SCRF=(PCM,Solvent=Water) Pop=MK NoSymm

cand05_biphenyl_4morpholine conformer 1 (Boltzmann pop=0.461)

0 1
C      0.89562700     9.89928525     0.54234842
C     -0.26036633     8.91064104     0.56751056
C      0.19103299     7.44667201     0.57677383
C      0.89361743     7.01110091    -0.70999191
C      1.31336539     5.54060257    -0.68192853
C      2.01115363     5.08661649    -1.91824739
C      2.68578065     3.94105317    -1.99822969
C      3.31479681     3.46583959    -3.21617524
C      4.04255005     2.35155513    -3.26601228
C      4.60628118     1.76619463    -4.53263652
O      5.43113622     2.69477355    -5.23584256
C      5.31702214     0.41640246    -4.30499445
C      4.48642975    -0.50357973    -3.47737328
C      3.35213740    -1.07872183    -3.88740757
C      2.40617978    -1.65002184    -2.94150317
C      2.27994037    -1.16573143    -1.70290910
C      1.36193190    -1.68718017    -0.68869765
O      0.87023178    -2.79635051    -0.80589124
O      1.16175654    -0.82349529     0.36811130
C      0.31887775    -1.33837226     1.39930350
C     -1.16613804    -1.01307959     1.08552289
O     -1.56877296    -1.62766534    -0.13954327
C     -2.09598902    -1.39100339     2.27105749
C     -3.55488770    -1.14043205     1.94934501
C     -4.17614281     0.08125486     2.28650666
O     -3.54797020     1.06449221     3.02310147
C     -5.48594608     0.31847581     1.88668955
C     -6.21423983    -0.62808759     1.18360838
O     -7.52707517    -0.40287006     0.80953223
C     -5.59250185    -1.83647393     0.87365439
C     -4.28705904    -2.09848971     1.24928961
C     -3.68409566    -3.43449207     0.92375757
O     -3.28642118    -4.17229749     2.06353063
O     -1.65202116    -0.71659330     3.46484930
C     -0.31894610    -1.05186312     3.86641186
C      0.01858830    -0.30404521     5.16297130
O     -0.38063454     1.04607024     5.14681657
C      0.72632489    -0.74084567     2.76909729
O      2.01378537    -1.20157786     3.20695096
C      3.07876434    -0.34810802     2.79181519
O      2.61513214     0.98286570     2.53827241
C      3.62293773     1.90534728     2.13448293
C      3.02338931     3.31159652     2.05822000
O      1.91374936     3.34626154     1.19455034
C      4.18306206     1.42441596     0.77500346
O      3.14964851     1.34808212    -0.17502663
C      4.84909607     0.03487566     0.95165085
O      5.30611750    -0.44660984    -0.30061472
C      3.86664571    -0.97616406     1.60215493
O      4.59479356    -2.10800910     2.08856990
C      4.50980730    -3.28666356     1.29684570
O      5.12621714    -3.21589758     0.00270126
C      5.22634753    -4.50665843    -0.60906195
C      6.08942006    -4.42789856    -1.87294518
O      5.53844744    -3.55625288    -2.82418582
C      3.80559813    -5.08323164    -0.88522518
O      3.10544292    -4.35592856    -1.88709994
C      2.99029162    -5.16117927     0.43587721
O      1.63704088    -5.47967324     0.16680937
C      3.05999112    -3.81230590     1.18931982
O      2.45691560    -3.91075243     2.46500782
C      0.75804579     2.98062966     1.84115611
O      0.62963052     2.88885065     3.04896391
C     -0.39818117     2.67111320     0.96105202
C     -0.20144038     2.04123503    -0.26010137
C     -1.27416948     1.63295840    -1.01599979
C     -2.58165232     1.85686360    -0.57794985
C     -3.73489775     1.28130263    -1.30033106
C     -4.88917313     2.02434438    -1.55209576
C     -5.96771256     1.45657970    -2.18527790
C     -5.94507798     0.11828667    -2.59605405
N     -7.06765834    -0.46747746    -3.22468502
C     -8.44228933    -0.18999274    -2.76715702
C     -8.93956216    -1.35732163    -1.91347944
O     -8.83847129    -2.59713497    -2.60809554
C     -7.51117918    -2.87167521    -3.04586680
C     -6.98817045    -1.75043830    -3.94170341
C     -4.78721805    -0.62289870    -2.33975560
C     -3.71501757    -0.05553897    -1.70037272
C     -2.76684810     2.54764792     0.62061182
C     -1.69193447     2.93466204     1.38434067
H      1.56508653     9.74393645     1.38991214
H      1.49280859     9.79658453    -0.36454647
H      0.54858090    10.93376198     0.58450924
H     -0.91612943     9.08028539    -0.29575992
H     -0.88887067     9.10669029     1.44672184
H     -0.67034706     6.78942388     0.75024838
H      0.85719191     7.27543180     1.43040645
H      0.23652041     7.19078698    -1.56876464
H      1.77693969     7.63487060    -0.88613220
H      0.43439776     4.90783487    -0.51322322
H      1.96508144     5.36460987     0.18136959
H      1.92616165     5.70913927    -2.79482172
H      2.75177932     3.29937445    -1.13295457
H      3.14365137     4.04734002    -4.10922744
H      4.19320660     1.79623845    -2.35464932
H      3.75266775     1.58798412    -5.20725675
H      6.18865833     2.95997721    -4.68386016
H      5.55959906    -0.04823537    -5.26578481
H      6.27662339     0.59843314    -3.81131045
H      4.74519829    -0.57498225    -2.43081133
H      3.06721228    -1.02326367    -4.92690738
H      1.77029785    -2.46309378    -3.25598515
H      2.86199010    -0.31469485    -1.39630493
H      0.45759918    -2.42622927     1.43138835
H     -1.25079268     0.07005829     0.93237648
H     -0.78495235    -2.09854126    -0.49770768
H     -1.97824970    -2.46248179     2.48111294
H     -2.72548131     0.69166319     3.39448267
H     -5.93535879     1.25803463     2.14857148
H     -7.87344285     0.39649370     1.24769562
H     -6.15777982    -2.57763711     0.33903323
H     -2.78999124    -3.29780188     0.30811169
H     -4.37387378    -4.04363914     0.32754620
H     -4.04715583    -4.35642701     2.64378361
H     -0.29997370    -2.13684837     4.04503483
H     -0.51324172    -0.75996905     6.00666966
H      1.09130815    -0.36316537     5.38304474
H      0.03174041     1.57375021     4.42012726
H      0.79687230     0.34897805     2.66147239
H      3.76279913    -0.28789594     3.65060161
H      4.41744931     1.87112004     2.89530368
H      3.76175884     4.03295235     1.69031352
H      2.68517244     3.64463099     3.04691904
H      4.91336409     2.14615266     0.37918686
H      2.47111026     0.72340472     0.17433800
H      5.72933381     0.12295242     1.60639025
H      5.35191736    -1.42810927    -0.24419956
H      3.15361553    -1.32544011     0.85474114
H      5.08856839    -4.02834007     1.86634820
H      5.72999953    -5.15504891     0.12449700
H      7.09203850    -4.05500520    -1.63473160
H      6.20608798    -5.41738590    -2.33201653
H      4.56648012    -3.66464317    -2.76529656
H      3.91041686    -6.09978922    -1.29753985
H      2.38130004    -3.82179048    -1.49174288
H      3.38111524    -5.95493706     1.08854821
H      1.21197762    -4.66445965    -0.17115298
H      2.47251602    -3.09508622     0.60945136
H      2.37878476    -3.00463449     2.84166612
H      0.80478921     1.83042156    -0.57750666
H     -1.11408632     1.10561784    -1.94092778
H     -4.92075137     3.05712769    -1.24922770
H     -6.83557502     2.05523521    -2.39908830
H     -9.07973637    -0.06077753    -3.64678356
H     -8.47089857     0.74999406    -2.20948721
H     -9.98836350    -1.23135554    -1.61607080
H     -8.34830718    -1.44698354    -0.99467022
H     -6.88458408    -2.98642639    -2.15453416
H     -7.52570821    -3.83972093    -3.56297368
H     -7.60839008    -1.67216742    -4.83973584
H     -5.96543792    -1.92991920    -4.28760085
H     -4.75630041    -1.66578471    -2.60022535
H     -2.86726708    -0.66078759    -1.43010719
H     -3.76809492     2.70799500     0.98251355
H     -1.84124961     3.40883779     2.33985659

