%chk=cand03_pyridylphenyl_conf01.chk
%nprocshared=8
%mem=16GB
#P B3LYP/6-31G(d) SCRF=(PCM,Solvent=Water) Pop=MK NoSymm

cand03_pyridylphenyl conformer 1 (Boltzmann pop=0.852)

0 1
C      1.06969552    -1.92006973     4.73506361
C      0.33347408    -0.61829679     4.46080893
C      1.20342291     0.63016216     4.62913405
C      2.36983763     0.69111567     3.64408810
C      3.22694433     1.95213858     3.79457793
C      4.43260045     1.92255796     2.92236551
C      5.16090463     2.98831419     2.59685075
C      6.29255366     2.89267880     1.69454084
C      6.89248748     3.93834421     1.12885295
C      7.87157622     3.81587878    -0.00854892
O      8.65025817     2.62173708     0.05603432
C      7.17316941     3.96613595    -1.38194925
C      5.90397811     3.18823934    -1.48672194
C      5.19972583     2.99530658    -2.60306900
C      3.90620262     2.34079906    -2.63375437
C      3.13864730     2.16173913    -1.55346034
C      1.83671534     1.48668266    -1.58745605
O      1.38587851     1.08261140    -2.64450143
O      1.20770146     1.35958365    -0.37443322
C     -0.07037155     0.73622942    -0.48144393
C     -1.17897597     1.79268034    -0.74163683
O     -0.97801572     2.43556987    -2.00115842
C     -2.60811426     1.18506170    -0.67133688
C     -3.63950042     2.28161304    -0.59549464
C     -3.95032512     2.82366345     0.66999323
O     -3.26576821     2.42617674     1.80780026
C     -4.96678969     3.76910443     0.75580064
C     -5.66975215     4.19160794    -0.36407197
O     -6.72565909     5.07265245    -0.20622286
C     -5.29772052     3.68641631    -1.60937137
C     -4.28688397     2.75116259    -1.73436894
C     -3.91749957     2.24559918    -3.09832258
O     -4.28946004     0.89374984    -3.31310013
O     -2.81128979     0.29643576     0.44593347
C     -1.80072787    -0.68303493     0.69214228
C     -2.18488033    -1.35625804     2.00196767
O     -2.31056800    -0.37651940     3.00108199
C     -0.40911035    -0.02855273     0.80919453
O      0.60222501    -0.93167542     1.23562857
C      0.92513687    -1.92786106     0.27590094
O     -0.21112091    -2.53725157    -0.35441857
C      0.17372220    -3.44633494    -1.38845038
C     -1.02186465    -3.88915470    -2.27146925
O     -2.17121878    -3.10024084    -2.07484504
C      0.89515096    -4.65247585    -0.73636697
O      0.06755451    -5.30541911     0.21657513
C      2.17782999    -4.17967284    -0.01689326
O      2.72854139    -5.26606784     0.69963055
C      1.85934585    -2.99401867     0.92792012
O      3.06458369    -2.42141508     1.41278364
C      3.67673511    -1.57955012     0.44767629
O      3.57922411    -2.02653685    -0.91583875
C      4.01168283    -1.03316052    -1.84780313
C      3.68463600    -1.46544772    -3.27719993
O      2.29305588    -1.53694059    -3.48543450
C      5.50882759    -0.70611158    -1.62118222
O      6.32604136    -1.82371835    -1.90660186
C      5.71411466    -0.22650485    -0.16332858
O      7.07214302     0.08351507     0.08471392
C      5.15900162    -1.29725487     0.80342245
O      5.30356122    -0.92498994     2.16221115
C     -2.91780685    -3.55861751    -1.02074074
O     -2.66113999    -4.54833963    -0.36129043
C     -4.10818869    -2.73572928    -0.69287767
C     -4.39759848    -1.61388000    -1.45134494
C     -5.43593180    -0.78369085    -1.10659322
C     -6.22630961    -1.05191067     0.00919188
C     -7.28781492    -0.11032240     0.41442744
C     -7.13320830     1.25747798     0.25723337
C     -8.12929551     2.11097857     0.66068022
N     -9.27386304     1.72658184     1.20141137
C     -9.41805120     0.41768157     1.34686881
C     -8.48321453    -0.52208483     0.98409798
C     -5.94836967    -2.20124717     0.75026752
C     -4.90478882    -3.02961430     0.40330590
H      1.51239966    -1.92111167     5.73219955
H      0.40578521    -2.78439372     4.66904408
H      1.87631199    -2.08081322     4.01858642
H     -0.06535785    -0.63453458     3.44062293
H     -0.54981025    -0.54656573     5.10995031
H      1.59001525     0.67074764     5.65422055
H      0.59166335     1.53373558     4.51531837
H      3.00554311    -0.19138886     3.77298355
H      1.99409958     0.62031156     2.61617970
H      3.53958308     2.06895872     4.83865930
H      2.62565202     2.83889545     3.56321831
H      4.73840200     0.95386208     2.55826968
H      4.88345953     3.96208747     2.96603854
H      6.57961073     1.89092340     1.41511376
H      6.55430007     4.92866777     1.38619523
H      8.62485212     4.61581911     0.09595663
H      8.08969450     1.81813389     0.01335328
H      7.86494579     3.65471220    -2.17082105
H      6.94713609     5.02193112    -1.56889377
H      5.49919405     2.82343393    -0.55917182
H      5.58641445     3.35799549    -3.54402129
H      3.54828550     2.00262398    -3.59567588
H      3.45604905     2.52792493    -0.59351436
H     -0.03195216     0.02816233    -1.31899047
H     -1.09883782     2.57556565     0.02570719
H     -0.15843114     2.06396678    -2.39157938
H     -2.78147621     0.58793684    -1.57459587
H     -3.53785591     2.97188199     2.56933801
H     -5.24480181     4.17423532     1.70976944
H     -7.05922268     5.37377235    -1.07017076
H     -5.82180920     4.01708828    -2.48705227
H     -2.83440397     2.33985257    -3.24022279
H     -4.39391963     2.87146250    -3.86227944
H     -4.16747085     0.63710909    -4.24612746
H     -1.80772146    -1.38789226    -0.14801788
H     -3.14969475    -1.86597738     1.90585490
H     -1.43692720    -2.09454830     2.30989927
H     -2.70088499     0.44529971     2.60454077
H     -0.47245597     0.71931044     1.61219076
H      1.47502518    -1.41403707    -0.52227868
H      0.89318728    -2.88453182    -2.00630125
H     -1.29859018    -4.93005509    -2.06908566
H     -0.77017540    -3.83685123    -3.33863742
H      1.14833728    -5.40149947    -1.50306405
H     -0.87584884    -5.06371928     0.06118755
H      2.94720231    -3.86606472    -0.73386973
H      2.00606857    -5.73012322     1.16731181
H      1.34080466    -3.39274584     1.80854743
H      3.12926363    -0.62791990     0.50913611
H      3.41940583    -0.14268703    -1.61145471
H      4.12587957    -0.78034509    -4.01115874
H      4.10230265    -2.45820163    -3.47028769
H      1.90044071    -0.66209731    -3.24909348
H      5.83506985     0.08416987    -2.31336710
H      5.93521171    -2.62713291    -1.51196376
H      5.14553068     0.69811263     0.00107014
H      7.60815887    -0.71144839    -0.08450632
H      5.73232459    -2.22142215     0.65568824
H      4.98510549    -1.65176579     2.73038952
H     -3.77412259    -1.38573480    -2.29936637
H     -5.62708175     0.09759192    -1.69451482
H     -6.22077625     1.64005833    -0.16295387
H     -7.98745073     3.17614784     0.54276169
H    -10.34874885     0.08919388     1.78612957
H     -8.67670244    -1.57172840     1.12387043
H     -6.53808345    -2.41776166     1.62458932
H     -4.67741958    -3.90510087     0.98834738

