%chk=cand02_naphthoyl_6OH_conf01.chk
%nprocshared=8
%mem=16GB
#P B3LYP/6-31G(d) SCRF=(PCM,Solvent=Water) Pop=MK NoSymm

cand02_naphthoyl_6OH conformer 1 (Boltzmann pop=0.678)

0 1
C      2.44965155     5.84745291    -2.32323084
C      1.29886783     5.47850035    -1.39527255
C      0.08767765     4.97950519    -2.17985422
C     -1.09063746     4.58120844    -1.29105513
C     -1.77250318     5.78890665    -0.63513718
C     -2.93577698     5.35652604     0.18933380
C     -4.20561710     5.67955337    -0.05642159
C     -5.31273681     5.19070644     0.72728599
C     -6.59471079     5.34429106     0.39441616
C     -7.72077722     4.69357071     1.13745313
O     -8.95073189     5.37221304     0.98305964
C     -7.93385080     3.25812093     0.57389705
C     -6.75655642     2.41286451     0.88119731
C     -5.73634288     2.22144409     0.03278046
C     -4.55152926     1.50844259     0.39199969
C     -3.48421184     1.35113049    -0.41624954
C     -2.30948461     0.61846499     0.00974011
O     -2.18400948     0.02296215     1.07396774
O     -1.35537456     0.62740712    -0.93169289
C     -0.06952050     0.10035109    -0.61762476
C      0.89297154     1.30329748    -0.46821518
O      0.49116581     2.13877538     0.57289301
C      2.32793350     0.75329316    -0.31702020
C      3.33376035     1.85304522    -0.07525529
C      3.82018985     2.61558623    -1.14717714
O      3.46599605     2.39343502    -2.43269422
C      4.70981622     3.65663717    -0.92333458
C      5.11840974     3.97341223     0.36242689
O      5.97983697     5.00133429     0.52396819
C      4.64610689     3.21579648     1.42688757
C      3.77245631     2.15953684     1.21618529
C      3.32686460     1.37553076     2.42938469
O      1.97456903     1.61355281     2.80168899
O      2.64134983     0.02873632    -1.49696285
C      1.87970699    -1.14937373    -1.63588370
C      2.37019235    -1.89535524    -2.88784355
O      3.52358498    -2.65554291    -2.65668803
C      0.37450365    -0.82924793    -1.75386785
O     -0.44360801    -1.99283450    -1.89994793
C     -0.43884414    -3.00204230    -0.94423924
O      0.83769968    -3.59294623    -0.88935225
C      0.95502391    -4.64892675     0.04793642
C      2.41688699    -5.10672044     0.02169705
O      3.31497334    -4.01503008     0.16182368
C      0.02399301    -5.81014708    -0.31570167
O      0.45881202    -6.38404914    -1.51551174
C     -1.41186646    -5.27604891    -0.44809786
O     -2.19603662    -6.32689408    -0.94759442
C     -1.44594366    -4.07180955    -1.40673643
O     -2.78027061    -3.62818401    -1.61315744
C     -3.37826273    -2.78525462    -0.68076773
O     -3.48011189    -3.44749467     0.55989330
C     -4.11720931    -2.63969517     1.54475275
C     -3.99013923    -3.35372561     2.90020356
O     -4.30281313    -2.51031050     3.97271566
C     -5.57890307    -2.44355354     1.13153029
O     -6.25648480    -3.67276850     1.03859403
C     -5.64104028    -1.70799989    -0.22161994
O     -6.96509976    -1.59864015    -0.65943950
C     -4.75827552    -2.41757801    -1.27064430
O     -4.59535790    -1.54407238    -2.35275596
C      3.51235601    -3.53314777     1.40161608
O      2.94177417    -3.99939483     2.37442687
C      4.46139613    -2.41641740     1.45094199
C      4.93681684    -2.00201065     2.71930530
C      5.80215883    -0.95503478     2.82608149
C      6.21503472    -0.23484820     1.67972324
C      7.06264481     0.87831902     1.76227266
C      7.42397165     1.57349650     0.62831727
O      8.22389946     2.65132975     0.76094230
C      6.94940975     1.15825750    -0.63464946
C      6.13082247     0.07358597    -0.74106504
C      5.73773783    -0.65054096     0.40563862
C      4.87991071    -1.75612288     0.31287948
H      2.14088431     6.62369997    -3.02001583
H      3.29689292     6.21408558    -1.74943952
H      2.76812470     4.97803042    -2.89326786
H      1.02182327     6.35428209    -0.80637453
H      1.62244105     4.69711691    -0.70296264
H     -0.23470965     5.75438667    -2.87978754
H      0.39244705     4.11117482    -2.76947469
H     -0.74788774     3.89113281    -0.51688163
H     -1.83209852     4.05412369    -1.89704288
H     -2.09984956     6.48658444    -1.40827265
H     -1.05093269     6.29755298     0.00782602
H     -2.70008382     4.70088353     1.01872857
H     -4.44971469     6.31269770    -0.89914432
H     -5.05451338     4.63710399     1.62100938
H     -6.87658736     5.87775712    -0.50235696
H     -7.47028723     4.60877077     2.20696273
H     -8.85638806     6.28230216     1.29432448
H     -8.09273890     3.34192663    -0.50071219
H     -8.83723491     2.86361570     1.03880482
H     -6.70137769     2.00555176     1.88188351
H     -5.77673703     2.62287718    -0.96896143
H     -4.50049746     1.09369294     1.39192268
H     -3.45288052     1.75160010    -1.41578056
H     -0.13165454    -0.43431353     0.34090050
H      0.82202937     1.90164358    -1.38503882
H      0.88605788     1.83102889     1.42099086
H      2.32926061     0.05450010     0.53337314
H      3.03459983     1.52525130    -2.50672382
H      5.07554858     4.22277620    -1.76310095
H      6.18252871     5.14123679     1.46166155
H      4.97727399     3.43843533     2.42977754
H      3.39824132     0.30067554     2.24494566
H      3.98418306     1.60720504     3.27175277
H      1.91581132     2.49482818     3.19937042
H      2.04180863    -1.77516764    -0.74754663
H      2.63905323    -1.15995716    -3.64807758
H      1.55209902    -2.52302430    -3.25521639
H      3.29549164    -3.40310655    -2.08553522
H      0.18953418    -0.30140461    -2.69660961
H     -0.70553564    -2.62967850     0.06790929
H      0.69262872    -4.27427672     1.05058691
H      2.63386091    -5.55636511    -0.94616248
H      2.57447442    -5.82403700     0.83169455
H      0.04656115    -6.55367471     0.49503205
H     -0.22389741    -7.01149340    -1.80776032
H     -1.77774664    -4.95839887     0.53882010
H     -3.01753446    -5.96270330    -1.30819090
H     -1.12049537    -4.39848577    -2.40138674
H     -2.80013707    -1.85352234    -0.55424764
H     -3.61459185    -1.66216829     1.59300275
H     -4.70622436    -4.17672726     2.94825474
H     -2.97465959    -3.75951672     2.98483583
H     -3.63135194    -1.81920222     4.05832046
H     -6.10874563    -1.85839608     1.88861563
H     -5.65543570    -4.32935957     0.65594322
H     -5.26490978    -0.68626639    -0.11682864
H     -7.42469151    -2.43133707    -0.45298436
H     -5.24896904    -3.34716011    -1.59166498
H     -4.15293896    -2.00593501    -3.08046853
H      4.59573654    -2.54625399     3.58723883
H      6.17404524    -0.65183464     3.79256687
H      7.43592262     1.20403012     2.72021663
H      8.44156278     3.03404134    -0.10314094
H      7.23436858     1.71469773    -1.51485239
H      5.75872817    -0.24719610    -1.70162383
H      4.54210322    -2.06711184    -0.66282949

