%chk=cand08_biphenyl_4COOH_conf02.chk
%nprocshared=8
%mem=16GB
#P B3LYP/6-31G(d) SCRF=(PCM,Solvent=Water) Pop=MK NoSymm

cand08_biphenyl_4COOH conformer 2 (Boltzmann pop=0.078)

0 1
C     -2.55789083     4.60674612    -0.36951396
C     -1.40127000     4.67268559     0.61447612
C     -0.05926897     5.01885318    -0.03723387
C      0.39453290     3.97977887    -1.06349630
C      1.82902869     4.19137637    -1.56370887
C      2.85452155     3.93909423    -0.51306213
C      4.16389890     4.10757764    -0.69554447
C      5.12878468     3.90928216     0.36724161
C      6.43560241     3.73697865     0.18726214
C      7.37046194     3.47053128     1.33541591
O      6.95387387     4.16321052     2.51601727
C      7.49351116     1.96186309     1.64125865
C      6.15558886     1.31583319     1.79818348
C      5.19645556     1.73878406     2.62736419
C      3.82637026     1.27070718     2.52690029
C      2.76060061     2.03275600     2.80330433
C      1.39936127     1.65212838     2.38503523
O      0.65505760     2.50501845     1.93464001
O      1.08815661     0.31133285     2.48148420
C      0.04911584    -0.09190342     1.59038552
C     -1.36449004    -0.08114509     2.21141588
O     -1.64787801     1.18984492     2.79274329
C     -2.40813667    -0.47070443     1.12497634
C     -3.76834299    -0.65021900     1.74970425
C     -3.98396646    -1.82630655     2.49790689
O     -2.97234882    -2.76421289     2.63167335
C     -5.21763746    -2.02890163     3.10385613
C     -6.23164006    -1.08740894     2.99990881
O     -7.46906879    -1.26842950     3.58669784
C     -5.98901027     0.07685675     2.27110182
C     -4.78351657     0.29631197     1.63341406
C     -4.59069012     1.58009055     0.88234660
O     -3.89601922     2.55870728     1.62250388
O     -2.06390594    -1.68410430     0.41450994
C     -0.71431160    -1.83232109    -0.05750080
C     -0.57012301    -3.29078327    -0.47266476
O     -0.93794563    -4.11869323     0.60332624
C      0.31988155    -1.50348175     1.03996767
O      1.66783170    -1.70314530     0.63496549
C      2.06694164    -0.75039791    -0.33073506
O      1.31703378    -0.79294276    -1.54588645
C      1.51089500     0.37215007    -2.35163119
C      0.66387101     0.23996231    -3.61736208
O     -0.67182251    -0.11500499    -3.34051616
C      3.01511459     0.57138620    -2.70532905
O      3.43859018    -0.36337893    -3.67787893
C      3.93619398     0.46869806    -1.45938013
O      5.28834713     0.45246159    -1.88603396
C      3.58168867    -0.79893317    -0.64781667
O      4.33941590    -0.89851740     0.55695881
C      5.37741021    -1.86653997     0.54085013
O      6.45776045    -1.58848047    -0.35994228
C      7.58540039    -2.44577128    -0.14532664
C      8.73078255    -2.02693789    -1.06950766
O      8.35703367    -2.09924088    -2.41965093
C      7.19059713    -3.93960780    -0.34786820
O      6.84497290    -4.23775285    -1.68793230
C      5.99857115    -4.31730011     0.56576947
O      5.55843835    -5.62561992     0.25324518
C      4.85368070    -3.30920976     0.34297073
O      3.76819742    -3.59942594     1.20007546
C     -1.40768031     0.96288067    -2.93027922
O     -0.97358663     2.09365191    -2.81957115
C     -2.83210835     0.67884090    -2.61437815
C     -3.22388348    -0.59525678    -2.23460134
C     -4.53397146    -0.86101753    -1.91466337
C     -5.50141423     0.14004444    -1.98201290
C     -6.90355149    -0.13722997    -1.60783605
C     -7.96234053     0.44069094    -2.30698576
C     -9.26583559     0.19061185    -1.94437096
C     -9.55331900    -0.64038115    -0.87243416
C    -10.96013702    -0.90879416    -0.48503205
O    -11.21109610    -1.66060821     0.43716340
O    -11.92482106    -0.28098239    -1.20471667
C     -8.50717769    -1.21903841    -0.17070079
C     -7.20338102    -0.97620269    -0.53519493
C     -5.10427829     1.41315010    -2.39120502
C     -3.78929231     1.67815081    -2.69763060
H     -2.40466102     3.81915862    -1.10832216
H     -3.50515555     4.39858062     0.13286241
H     -2.67078784     5.54645705    -0.91210430
H     -1.62823398     5.40058658     1.40494609
H     -1.30292462     3.71003277     1.13152013
H      0.71006058     5.11651672     0.73874870
H     -0.11757773     6.00488524    -0.51262767
H      0.31163754     2.98223949    -0.61744085
H     -0.29951635     3.97427302    -1.91239415
H      2.03176089     3.54138646    -2.42298712
H      1.93954704     5.21568445    -1.93761118
H      2.49461940     3.58668485     0.44157604
H      4.53549912     4.41920677    -1.65839172
H      4.72848638     3.89920803     1.36860621
H      6.82706098     3.70488987    -0.81632621
H      8.37214037     3.86055857     1.08604836
H      6.96687240     5.12753365     2.38399162
H      8.05956446     1.46463112     0.84548344
H      8.06928321     1.83088580     2.56306660
H      5.90692751     0.53728893     1.09259933
H      5.38734789     2.55801167     3.30443524
H      3.68314210     0.31826728     2.03905331
H      2.89112955     3.02645771     3.19743702
H      0.04611124     0.62012262     0.75434684
H     -1.41202150    -0.82030718     3.02360350
H     -0.86516132     1.75769165     2.61505674
H     -2.43451234     0.32493676     0.37325496
H     -3.23947071    -3.45932627     3.26177971
H     -5.38515146    -2.93283016     3.65971857
H     -7.49572159    -2.09296266     4.10266325
H     -6.77224157     0.81056364     2.20992941
H     -4.06092486     1.41132085    -0.05987624
H     -5.56051529     2.01028516     0.60937819
H     -3.14118966     2.13076299     2.09117552
H     -0.57441781    -1.15202476    -0.90686597
H     -1.22148670    -3.52515084    -1.32297991
H      0.46266051    -3.52477654    -0.75599035
H     -1.64529466    -3.67770123     1.14103323
H      0.16771855    -2.21789721     1.86131442
H      1.87880060     0.23131953     0.12172160
H      1.14133656     1.21913221    -1.75775855
H      0.67322368     1.15970233    -4.21405294
H      1.07973477    -0.56669347    -4.23197204
H      3.14244854     1.56614049    -3.16050063
H      4.41132181    -0.31932548    -3.76282892
H      3.81001732     1.34765065    -0.81038770
H      5.77340614    -0.23043909    -1.36884138
H      3.77982372    -1.67609962    -1.27220315
H      5.80869516    -1.81343893     1.55065263
H      7.88963389    -2.29577077     0.90201535
H      9.61462304    -2.65869146    -0.91686865
H      9.02782974    -0.99006235    -0.87410674
H      7.76894757    -2.87384046    -2.51719687
H      8.05570798    -4.57634526    -0.10183633
H      6.41543806    -5.11404839    -1.71467685
H      6.30102275    -4.29833966     1.62355676
H      4.72363177    -5.81301384     0.71504527
H      4.50994048    -3.43740813    -0.69203181
H      3.06009461    -2.92762489     1.07262640
H     -2.48400176    -1.37596979    -2.19410766
H     -4.82186814    -1.85460855    -1.61605796
H     -7.75136318     1.07626949    -3.14997782
H    -10.08317254     0.63508333    -2.48727213
H    -12.79007737    -0.53564543    -0.85815614
H     -8.73547996    -1.85344248     0.66950860
H     -6.39847634    -1.41943671     0.02560250
H     -5.83609806     2.20114929    -2.44165357
H     -3.48582931     2.66207937    -3.01343716

