%chk=cand08_biphenyl_4COOH_conf03.chk
%nprocshared=8
%mem=16GB
#P B3LYP/6-31G(d) SCRF=(PCM,Solvent=Water) Pop=MK NoSymm

cand08_biphenyl_4COOH conformer 3 (Boltzmann pop=0.076)

0 1
C     -2.34621926     5.14379080     1.39454924
C     -1.78086730     4.24338336     0.30806148
C     -0.36930816     4.63935071    -0.12575950
C      0.19092721     3.70753714    -1.19919954
C      1.62318884     4.04394352    -1.63187508
C      2.63404751     3.83085783    -0.55782427
C      3.93498199     4.07900533    -0.70867065
C      4.89157552     3.92510830     0.36876323
C      6.21032314     3.85253151     0.20743460
C      7.14718131     3.63633653     1.36449022
O      6.67953652     4.30049746     2.54202062
C      7.35498292     2.13665165     1.66785988
C      6.05335633     1.41912073     1.81667639
C      5.07893368     1.77554059     2.65953727
C      3.72960225     1.25293780     2.54455626
C      2.63317099     1.96343185     2.83823879
C      1.29105022     1.54448131     2.39547846
O      0.52243855     2.38312935     1.95854225
O      1.02648055     0.19110631     2.45178009
C      0.01275019    -0.21619566     1.53542956
C     -1.41327432    -0.26406675     2.12960218
O     -1.72217647     0.95901410     2.79221000
C     -2.41817205    -0.59164438     0.98864020
C     -3.81312698    -0.78841842     1.52785009
C     -4.09631620    -2.01818084     2.15885703
O     -3.10185995    -2.97152100     2.31065353
C     -5.38168708    -2.26165361     2.62795925
C     -6.38462356    -1.31132922     2.50004970
O     -7.67551323    -1.53285058     2.93850001
C     -6.07335810    -0.09112054     1.90153390
C     -4.81207769     0.17541974     1.40606141
C     -4.55255527     1.52697177     0.80784567
O     -3.92658248     2.41772945     1.70151018
O     -2.04435603    -1.77301203     0.23943218
C     -0.68068110    -1.89745432    -0.19891861
C     -0.51688144    -3.33888412    -0.66324521
O     -0.91966062    -4.20840154     0.36588171
C      0.32458432    -1.59813163     0.93463965
O      1.68671344    -1.75563856     0.55697497
C      2.07832055    -0.81011018    -0.42065598
O      1.36249967    -0.91529956    -1.65280137
C      1.55207403     0.21593112    -2.50613800
C      0.72648243     0.00948485    -3.77561336
O     -0.62271626    -0.28072669    -3.48709018
C      3.05769931     0.42702506    -2.83756623
O      3.52209360    -0.54630276    -3.75154713
C      3.94891601     0.40506029    -1.56631481
O      5.30996520     0.39631029    -1.96334699
C      3.60245043    -0.82808458    -0.69903442
O      4.33015035    -0.84433067     0.52851180
C      5.40210744    -1.77378350     0.59069155
O      6.49974171    -1.50148571    -0.29085280
C      7.65065993    -2.30350638    -0.00021934
C      8.80823074    -1.88820987    -0.91080810
O      8.47948594    -2.04256282    -2.26574983
C      7.31638453    -3.81930613    -0.13737293
O      7.02362274    -4.19786311    -1.46994387
C      6.11138306    -4.19441418     0.75983315
O      5.72858673    -5.53227059     0.50345052
C      4.93758943    -3.24308105     0.45258764
O      3.83877856    -3.53236776     1.29299324
C     -1.33662417     0.86060506    -3.24200679
O     -0.87972952     1.98545678    -3.31701141
C     -2.75667557     0.65918488    -2.85356656
C     -3.17030075    -0.55388961    -2.32859170
C     -4.46831186    -0.73510914    -1.91499725
C     -5.41051982     0.28608304    -2.03744517
C     -6.78599845     0.10695995    -1.52704892
C     -7.53939899     1.19470459    -1.08296322
C     -8.79215716     1.01599010    -0.54286616
C     -9.33681281    -0.25309080    -0.42884752
C    -10.68387761    -0.44608104     0.16194053
O    -11.15351809    -1.56274428     0.26895212
O    -11.34506771     0.67003800     0.56132368
C     -8.60461214    -1.33984464    -0.87901457
C     -7.35273586    -1.16393415    -1.42151005
C     -4.99193786     1.49315163    -2.59989142
C     -3.68499382     1.67919538    -2.99013849
H     -3.34175846     4.82276357     1.70969540
H     -1.70552535     5.14224224     2.27768069
H     -2.42369218     6.17676279     1.05213061
H     -1.76486070     3.20274647     0.65568537
H     -2.44511040     4.24044653    -0.56537258
H      0.29207628     4.63545393     0.74851226
H     -0.36514212     5.67345168    -0.48924991
H      0.15540168     2.67783654    -0.82676773
H     -0.47555150     3.72120647    -2.07038537
H      1.90380627     3.44604139    -2.50739476
H      1.66841463     5.08764258    -1.96370013
H      2.27374057     3.45120037     0.38607904
H      4.30764670     4.42650775    -1.65898962
H      4.47724638     3.86604581     1.36255974
H      6.61875822     3.87264023    -0.78974679
H      8.12725279     4.08400682     1.12641329
H      6.62988153     5.26340050     2.40873780
H      7.95177745     1.67359679     0.87399422
H      7.93225736     2.03579896     2.59247064
H      5.83664147     0.65207250     1.08831068
H      5.23390876     2.58523663     3.35704102
H      3.62609104     0.31180906     2.02567956
H      2.72230151     2.95023802     3.26033262
H      0.00430823     0.52332419     0.72362014
H     -1.47073684    -1.05929532     2.88630360
H     -0.96508132     1.56307665     2.62171822
H     -2.40373650     0.23627524     0.27220629
H     -3.42492912    -3.70949542     2.86075164
H     -5.59928035    -3.20571106     3.09219195
H     -7.76729732    -2.41831617     3.33076078
H     -6.84863628     0.64958094     1.82715250
H     -3.95121546     1.45391686    -0.10358813
H     -5.49527170     1.99531218     0.50893618
H     -3.19378119     1.94392813     2.16018186
H     -0.52413552    -1.18925494    -1.02181298
H     -1.13602080    -3.54185350    -1.54528431
H      0.52622580    -3.55848568    -0.91865947
H     -1.66323798    -3.79989321     0.87982973
H      0.16645455    -2.34909129     1.72138041
H      1.84629849     0.17617833     0.00009479
H      1.15851389     1.08286976    -1.95935574
H      0.77197828     0.88087052    -4.43947548
H      1.12832116    -0.85299883    -4.31944182
H      3.17495620     1.40106709    -3.33874836
H      4.49544329    -0.48599701    -3.81639178
H      3.79034926     1.31324781    -0.96641895
H      5.80140922    -0.23684975    -1.39207158
H      3.84127526    -1.73080346    -1.27052476
H      5.80000393    -1.65530890     1.60861265
H      7.91638346    -2.09017383     1.04669123
H      9.70939783    -2.47736037    -0.70011859
H      9.06075891    -0.83212865    -0.76050168
H      7.92220163    -2.84201240    -2.34021907
H      8.19549397    -4.40999998     0.16688240
H      6.62913573    -5.09100236    -1.46425928
H      6.38003696    -4.11049014     1.82363007
H      4.88595964    -5.72512865     0.94845590
H      4.63037978    -3.43522120    -0.58391360
H      3.10765955    -2.89994762     1.10770441
H     -2.45308897    -1.35088667    -2.23488254
H     -4.74822746    -1.66597700    -1.45292491
H     -7.12957535     2.18754667    -1.14782049
H     -9.36723076     1.85790494    -0.19483403
H    -12.20183258     0.41139893     0.92596441
H     -9.03452459    -2.32392252    -0.79186180
H     -6.80663830    -2.01929855    -1.77983763
H     -5.70321518     2.28971542    -2.73350173
H     -3.36422921     2.61768315    -3.41062023

