%chk=cand08_biphenyl_4COOH_conf05.chk
%nprocshared=8
%mem=16GB
#P B3LYP/6-31G(d) SCRF=(PCM,Solvent=Water) Pop=MK NoSymm

cand08_biphenyl_4COOH conformer 5 (Boltzmann pop=0.050)

0 1
C     -2.70190753     4.43845022    -0.53888343
C     -1.58612040     4.44902111     0.49338873
C     -0.21663457     4.81236222    -0.08700167
C      0.28936718     3.79780103    -1.11296846
C      1.72809612     4.05919440    -1.57629798
C      2.73654447     3.84829255    -0.50000671
C      4.04042789     4.08087937    -0.64867339
C      4.98920372     3.92003194     0.43483883
C      6.30596283     3.80658747     0.28182376
C      7.22693032     3.56836103     1.44720413
O      6.76269824     4.24085455     2.62141334
C      7.39622634     2.06361488     1.75016392
C      6.07733258     1.37306662     1.87395649
C      5.09549249     1.74691852     2.70028304
C      3.74092824     1.24310835     2.56800044
C      2.65011181     1.96371928     2.85736878
C      1.30589690     1.55803198     2.40808294
O      0.54902936     2.40201021     1.96156503
O      1.02468371     0.20858454     2.47067783
C      0.00999940    -0.19249268     1.55215933
C     -1.41735135    -0.22550516     2.14386356
O     -1.72566708     1.01226498     2.78057280
C     -2.42400147    -0.56913492     1.00930516
C     -3.81529745    -0.76560669     1.55682341
C     -4.08609801    -1.98342843     2.21509621
O     -3.08270689    -2.92501017     2.38100982
C     -5.36835420    -2.22740895     2.69216616
C     -6.38050977    -1.28992693     2.54243792
O     -7.66905842    -1.51422832     2.98651467
C     -6.08152205    -0.08117102     1.91474055
C     -4.82282822     0.18520573     1.41252979
C     -4.57514516     1.51644672     0.76670860
O     -3.92923013     2.43897316     1.61308382
O     -2.05295947    -1.75736103     0.27027943
C     -0.69072048    -1.88626143    -0.16928248
C     -0.53010469    -3.33202194    -0.62097936
O     -0.92909797    -4.19109680     0.41855756
C      0.31594004    -1.57977634     0.96023599
O      1.67540651    -1.74192368     0.57637352
C      2.06743567    -0.78790197    -0.39252319
O      1.34138319    -0.86829864    -1.62077685
C      1.53312954     0.27666347    -2.45509582
C      0.70096373     0.10112666    -3.72516799
O     -0.64601163    -0.20717657    -3.44447016
C      3.03900763     0.47918954    -2.79365073
O      3.48673392    -0.48504361    -3.72568903
C      3.94053773     0.42917007    -1.53034715
O      5.29770180     0.41250693    -1.93951578
C      3.58939217    -0.81384050    -0.67967064
O      4.32070951    -0.85270192     0.54545160
C      5.39079192    -1.78500231     0.59058316
O      6.49467048    -1.48990443    -0.27557664
C      7.64266810    -2.30059302     0.00142143
C      8.80681599    -1.86136179    -0.88913595
O      8.48735412    -1.97814356    -2.25009623
C      7.30765137    -3.81153103    -0.17994861
O      7.02127907    -4.15165307    -1.52418460
C      6.09706002    -4.20976909     0.69959094
O      5.71507125    -5.54023617     0.40582337
C      4.92571294    -3.24959527     0.41106823
O      3.82178242    -3.55981923     1.23733835
C     -1.37444664     0.91951796    -3.17551818
O     -0.92787762     2.05082608    -3.19928529
C     -2.80092339     0.69007206    -2.82585811
C     -3.19711455    -0.51856537    -2.27744132
C     -4.49789147    -0.71853924    -1.88195670
C     -5.45904949     0.27896170    -2.04516067
C     -6.83050798     0.09406649    -1.52629101
C     -7.59080110     1.18291484    -1.09695800
C     -8.83411408     1.00219708    -0.53643133
C     -9.36142195    -0.27048803    -0.38586167
C    -10.69482778    -0.46557750     0.23460243
O    -11.35401262     0.49339487     0.58771888
O    -11.12210184    -1.74593370     0.37931612
C     -8.62277546    -1.35853147    -0.82215410
C     -7.38030474    -1.18076217    -1.38550351
C     -5.06009022     1.47619834    -2.64201670
C     -3.75145314     1.68065876    -3.01699995
H     -3.67090520     4.22276207    -0.08340307
H     -2.78241271     5.40165237    -1.04493202
H     -2.52835345     3.68142700    -1.30452821
H     -1.84102587     5.14360287     1.30511620
H     -1.51628718     3.46413606     0.97171740
H      0.51553087     4.89510270     0.72593198
H     -0.25709327     5.80833586    -0.54309813
H      0.22489177     2.79342137    -0.67971340
H     -0.38328485     3.78371056    -1.97865062
H      1.97631812     3.41615545    -2.42893431
H      1.81066928     5.08617767    -1.95023004
H      2.37022881     3.47459249     0.44407411
H      4.42004054     4.41700025    -1.60017699
H      4.56842623     3.88502184     1.42727220
H      6.71997749     3.80115982    -0.71316063
H      8.21914159     3.99400252     1.21932337
H      6.74096701     5.20521831     2.49147156
H      7.99692562     1.58941560     0.96582216
H      7.95505492     1.94838522     2.68441656
H      5.85952783     0.60950966     1.14219684
H      5.25333055     2.55361200     3.40061981
H      3.63095675     0.30491003     2.04511402
H      2.74678454     2.94736885     3.28515670
H      0.00933326     0.54342692     0.73706879
H     -1.47804911    -1.00559173     2.91592452
H     -0.95832046     1.60553198     2.61939928
H     -2.41474051     0.25248213     0.28555014
H     -3.39634834    -3.65433927     2.94770221
H     -5.57667579    -3.16265608     3.17794917
H     -7.74998374    -2.38848949     3.40539322
H     -6.86484183     0.64865073     1.82008087
H     -3.99160307     1.41070009    -0.15291760
H     -5.52395783     1.97370526     0.46972939
H     -3.19674848     1.98160347     2.08872075
H     -0.53371095    -1.18438167    -0.99748278
H     -1.15395256    -3.54241485    -1.49796252
H      0.51148569    -3.55558165    -0.87907875
H     -1.66559147    -3.77443804     0.93611859
H      0.15997786    -2.32477274     1.75307119
H      1.84755547     0.19462177     0.04338225
H      1.14904582     1.13627458    -1.88984114
H      0.73911141     0.99032612    -4.36544048
H      1.10594314    -0.74363049    -4.29399444
H      3.16285918     1.45886641    -3.28176826
H      4.46036365    -0.43553745    -3.79588532
H      3.79656261     1.32910628    -0.91470392
H      5.79148523    -0.22090560    -1.37066787
H      3.81804997    -1.71006079    -1.26515974
H      5.78179995    -1.69353849     1.61394492
H      7.90106226    -2.11618500     1.05555337
H      9.70598883    -2.45691581    -0.68830345
H      9.05898062    -0.81010529    -0.70796651
H      7.92922502    -2.77434309    -2.34982338
H      8.18457059    -4.41172311     0.11186198
H      6.62630046    -5.04422045    -1.54610463
H      6.36044049    -4.15367673     1.76644957
H      4.87156641    -5.74572695     0.84315668
H      4.62420540    -3.41435321    -0.63167798
H      3.09623346    -2.91477116     1.07471021
H     -2.46411109    -1.29579677    -2.14806059
H     -4.76501725    -1.64181986    -1.39747083
H     -7.19160935     2.17822175    -1.18679527
H     -9.41440794     1.84482573    -0.19870948
H    -11.99326529    -1.74032841     0.79741730
H     -9.03909300    -2.34531338    -0.70590299
H     -6.82742277    -2.03736476    -1.73030869
H     -5.78766791     2.25113018    -2.81085636
H     -3.44667468     2.61098207    -3.46637661

