%chk=cand08_biphenyl_4COOH_conf01.chk
%nprocshared=8
%mem=16GB
#P B3LYP/6-31G(d) SCRF=(PCM,Solvent=Water) Pop=MK NoSymm

cand08_biphenyl_4COOH conformer 1 (Boltzmann pop=0.086)

0 1
C     -2.50962860     4.54030159    -0.45092055
C     -1.37581206     4.63561923     0.55663641
C     -0.02682473     4.99946913    -0.07053501
C      0.46265860     3.96105317    -1.08094032
C      1.90156492     4.19405701    -1.55855415
C      2.91450525     3.95296508    -0.49332730
C      4.22626252     4.11500210    -0.66401964
C      5.17994002     3.91603814     0.40870216
C      6.48609438     3.72688788     0.24096072
C      7.40506036     3.44362175     1.39773337
O      6.98220840     4.13278342     2.57814906
C      7.50724572     1.93153405     1.69439877
C      6.16023774     1.29848879     1.82432450
C      5.19417305     1.72160949     2.64514312
C      3.82302531     1.26184282     2.52675656
C      2.75789893     2.02319127     2.80654107
C      1.39725038     1.64736930     2.38193113
O      0.65572902     2.50359530     1.93350042
O      1.08296018     0.30701267     2.47273580
C      0.04073217    -0.09045876     1.58273648
C     -1.37168278    -0.07645871     2.20681580
O     -1.65072412     1.19414746     2.79119612
C     -2.41891522    -0.46047943     1.12189683
C     -3.77974441    -0.63302303     1.74713352
C     -4.00069398    -1.80725936     2.49651887
O     -2.99324851    -2.74963151     2.63040366
C     -5.23539070    -2.00356529     3.10250854
C     -6.24556669    -1.05799340     2.99640122
O     -7.48437343    -1.23334510     3.58211180
C     -5.99771481     0.10413364     2.26589585
C     -4.79088264     0.31745606     1.62864642
C     -4.59186192     1.59841035     0.87446991
O     -3.88810520     2.57400747     1.61026004
O     -2.08118382    -1.67561264     0.41190287
C     -0.73354393    -1.82863985    -0.06390841
C     -0.59621885    -3.28836750    -0.47706187
O     -0.96360293    -4.11316962     0.60153213
C      0.30601594    -1.50215858     1.02928780
O      1.65183216    -1.70422795     0.61782594
C      2.04682920    -0.75472231    -0.35296518
O      1.29523608    -0.80586655    -1.56695144
C      1.48779944     0.35400621    -2.38035635
C      0.63628130     0.21784111    -3.64239737
O     -0.70025058    -0.12882597    -3.35995754
C      2.99099501     0.54829475    -2.73908279
O      3.41271870    -0.39916613    -3.70008243
C      3.91344316     0.45940941    -1.49319756
O      5.26426841     0.44117728    -1.92321718
C      3.56173796    -0.80154897    -0.66999494
O      4.31781765    -0.88859860     0.53702206
C      5.36603103    -1.84576739     0.53001232
O      6.45494700    -1.55133488    -0.35518411
C      7.58970484    -2.39638740    -0.13034940
C      8.74077625    -1.96049963    -1.03939121
O      8.38413463    -2.03313804    -2.39416921
C      7.21423392    -3.89384359    -0.34279385
O      6.88740845    -4.19097421    -1.68785152
C      6.01589286    -4.28778583     0.55538377
O      5.59570318    -5.60089260     0.23648656
C      4.86164632    -3.29337624     0.31967188
O      3.76701416    -3.60094738     1.15926178
C     -1.42590223     0.95088417    -2.93611404
O     -0.98313043     2.07717432    -2.81384445
C     -2.85162114     0.67329735    -2.61967327
C     -3.24671705    -0.59774136    -2.23327385
C     -4.55763486    -0.85868875    -1.91330306
C     -5.52256264     0.14422510    -1.98759125
C     -6.92563445    -0.12893574    -1.61421689
C     -7.22739041    -0.95673821    -0.53360607
C     -8.53199086    -1.19759507    -0.17080561
C     -9.57673599    -0.62868033    -0.88233138
C    -10.98431394    -0.89570379    -0.49669601
O    -11.89697178    -0.36695149    -1.10192142
O    -11.18593824    -1.74421142     0.54340458
C     -9.28724992     0.19138998    -1.96231478
C     -7.98294059     0.43988771    -2.32308441
C     -5.12234753     1.41404317    -2.40379760
C     -3.80643028     1.67427574    -2.71034000
H     -3.46364988     4.31973535     0.03301473
H     -2.62745578     5.47305239    -1.00442970
H     -2.32610768     3.74925147    -1.17891602
H     -1.63257334     5.36605225     1.33555403
H     -1.27190018     3.67927255     1.08421984
H      0.72575030     5.11443655     0.71943873
H     -0.09166934     5.98122569    -0.55390915
H      0.38950453     2.96600655    -0.62785826
H     -0.21681549     3.93724374    -1.94120954
H      2.12684869     3.54836960    -2.41547677
H      2.00368269     5.22047247    -1.92907041
H      2.54374704     3.61046903     0.46076791
H      4.60904601     4.41545985    -1.62608599
H      4.77038247     3.91297249     1.40644218
H      6.88609463     3.68586454    -0.75889613
H      8.41373331     3.82410152     1.16229264
H      7.00884636     5.09780751     2.45350274
H      8.08130374     1.43406546     0.90452131
H      8.06645949     1.78781585     2.62447152
H      5.91384703     0.53043128     1.10644169
H      5.38323060     2.53218248     3.33306634
H      3.67967413     0.31543271     2.02733044
H      2.88872196     3.01194518     3.21281016
H      0.03811616     0.62347464     0.74843096
H     -1.41966396    -0.81710967     3.01762605
H     -0.86675666     1.76040393     2.61420657
H     -2.44191812     0.33511242     0.36999478
H     -3.26338719    -3.44323877     3.26091388
H     -5.40696360    -2.90580542     3.65977540
H     -7.51382270    -2.05614921     4.10072692
H     -6.77796611     0.84083507     2.20269484
H     -4.06636568     1.42372338    -0.06911688
H     -5.55953875     2.03486394     0.60371682
H     -3.13741566     2.14175349     2.08163982
H     -0.59401914    -1.15028968    -0.91483043
H     -1.25111977    -3.52153441    -1.32500485
H      0.43472286    -3.52660440    -0.76354421
H     -1.66984544    -3.67061941     1.13939480
H      0.15659478    -2.21687613     1.85089389
H      1.85687777     0.22872214     0.09484138
H      1.12182994     1.20502996    -1.79026216
H      0.64768120     1.13379225    -4.24480421
H      1.04671503    -0.59434828    -4.25334889
H      3.11800161     1.53704432    -3.20723156
H      4.38549794    -0.35773854    -3.78574987
H      3.78679048     1.34438540    -0.85250221
H      5.75618535    -0.22327819    -1.38898699
H      3.76175782    -1.68384292    -1.28626166
H      5.78371870    -1.79273346     1.54552161
H      7.87960907    -2.24687065     0.92112273
H      9.63043348    -2.58179272    -0.87800240
H      9.02259795    -0.92067064    -0.83722743
H      7.80707338    -2.81482865    -2.50083845
H      8.08337321    -4.52201990    -0.08902633
H      6.46852088    -5.07212040    -1.72264383
H      6.30548263    -4.26598445     1.61671691
H      4.75770667    -5.79800287     0.68821604
H      4.53533845    -3.42199272    -0.72082047
H      3.05643003    -2.93100394     1.03475126
H     -2.50878091    -1.38006330    -2.18804004
H     -4.84833160    -1.84992141    -1.60964444
H     -6.42345202    -1.39273753     0.03426061
H     -8.76163889    -1.82334167     0.67555922
H    -12.13604598    -1.83417897     0.69523434
H    -10.10386504     0.62799410    -2.51299133
H     -7.76988826     1.06675056    -3.17215754
H     -5.85270648     2.20301563    -2.46048174
H     -3.50101540     2.65513085    -3.03369296

