%chk=cand08_biphenyl_4COOH_conf04.chk
%nprocshared=8
%mem=16GB
#P B3LYP/6-31G(d) SCRF=(PCM,Solvent=Water) Pop=MK NoSymm

cand08_biphenyl_4COOH conformer 4 (Boltzmann pop=0.071)

0 1
C     -2.48109230     4.49373112    -0.49830746
C     -1.36323475     4.59377411     0.52671493
C     -0.00643410     4.96169492    -0.08047408
C      0.50175792     3.92357922    -1.08174671
C      1.94452650     4.16610234    -1.54218414
C      2.94595950     3.93775010    -0.46336430
C      4.25681762     4.12365956    -0.61528267
C      5.20038973     3.92800064     0.46683739
C      6.51139694     3.76218773     0.31231518
C      7.41979288     3.47063631     1.47524880
O      6.97818554     4.14045090     2.65981561
C      7.52895310     1.95516932     1.75206186
C      6.18408578     1.31257752     1.85575470
C      5.21182517     1.70972133     2.68224327
C      3.84336005     1.24810564     2.54408471
C      2.77378908     1.99580283     2.84271581
C      1.41577671     1.62198397     2.40731806
O      0.67616286     2.48026557     1.95961151
O      1.10214470     0.28128777     2.48943361
C      0.05740940    -0.10815693     1.59956721
C     -1.35231749    -0.09973261     2.23159684
O     -1.63743018     1.17434072     2.80610875
C     -2.40357223    -0.49749829     1.15593831
C     -3.76809740    -0.64305236     1.78047009
C     -3.99872645    -1.78345915     2.57687523
O     -2.98876961    -2.71176050     2.76599711
C     -5.24166109    -1.95745611     3.17277699
C     -6.25069027    -1.01811272     3.01454368
O     -7.49908384    -1.17278251     3.58550572
C     -5.99081993     0.11662897     2.24620088
C     -4.77515863     0.30520463     1.61796223
C     -4.55826262     1.56423721     0.83303162
O     -3.84689103     2.54899413     1.54927075
O     -2.06230666    -1.72210314     0.46483306
C     -0.72823458    -1.82509732    -0.05812975
C     -0.55558057    -3.25293278    -0.56002946
O     -0.88028001    -4.15411744     0.46865609
C      0.32338469    -1.51308594     1.02760845
O      1.66658655    -1.70590064     0.60406717
C      2.04614824    -0.75735092    -0.37390375
O      1.28171766    -0.82190841    -1.57950186
C      1.46166482     0.32968584    -2.40663163
C      0.59128395     0.18283987    -3.65434648
O     -0.74161900    -0.16007990    -3.35043077
C      2.95939648     0.51809942    -2.78844326
O      3.36798857    -0.44513446    -3.73952135
C      3.89755261     0.44851933    -1.55318138
O      5.24205829     0.42245677    -2.00154549
C      3.55874065    -0.79923201    -0.70449559
O      4.32578926    -0.85696651     0.49787356
C      5.38202264    -1.80576654     0.50220931
O      6.46129873    -1.52145967    -0.39802743
C      7.60512602    -2.35227228    -0.16611853
C      8.74335203    -1.92709925    -1.09624472
O      8.37366346    -2.03129995    -2.44541959
C      7.24030501    -3.85693484    -0.34264530
O      6.90427449    -4.18601066    -1.67796097
C      6.05327682    -4.24108884     0.57440835
O      5.64116685    -5.56381506     0.28714371
C      4.88835042    -3.26176957     0.32804334
O      3.80563875    -3.56048658     1.18613072
C     -1.45994523     0.92276390    -2.92182834
O     -1.01087671     2.04632117    -2.79681972
C     -2.88753138     0.65236535    -2.60643003
C     -3.28651940    -0.61037813    -2.19712986
C     -4.60072134    -0.86476756    -1.88511229
C     -5.56483492     0.13635739    -1.98977068
C     -6.97211197    -0.12811302    -1.62581662
C     -7.28705777    -0.93469116    -0.53295623
C     -8.59590302    -1.16427513    -0.17799977
C     -9.63190741    -0.60501701    -0.90973024
C    -11.04405035    -0.85810851    -0.53149093
O    -11.94904853    -0.34110869    -1.15806329
O    -11.25871424    -1.68097436     0.52643371
C     -9.32935365     0.19297665    -2.00256003
C     -8.02083764     0.43011221    -2.35558490
C     -5.15989872     1.39774200    -2.42669852
C     -3.84108516     1.65157642    -2.72603217
H     -3.44194912     4.27225404    -0.02862571
H     -2.59238062     5.42500210    -1.05556976
H     -2.28465492     3.70137883    -1.22154550
H     -1.63437267     5.32425357     1.30073766
H     -1.26413223     3.63833337     1.05686255
H      0.73388258     5.08071035     0.72043214
H     -0.06780855     5.94234235    -0.56652842
H      0.43001943     2.92975407    -0.62585441
H     -0.16717242     3.89238409    -1.95002573
H      2.18625388     3.51866496    -2.39324710
H      2.04310056     5.19170126    -1.91588479
H      2.56829753     3.58173278     0.48306910
H      4.64704447     4.43831697    -1.56977776
H      4.77868384     3.90289975     1.45922753
H      6.92443135     3.74450698    -0.68287788
H      8.42812328     3.86180954     1.25655436
H      6.99687302     5.10720670     2.54768810
H      8.11645634     1.47219656     0.96312722
H      8.07693848     1.80221101     2.68732150
H      5.94341293     0.56671537     1.11274218
H      5.39376060     2.50158875     3.39354757
H      3.70630587     0.31608983     2.01657825
H      2.89834675     2.97369875     3.27638996
H      0.05098975     0.61548659     0.77373684
H     -1.39039576    -0.83442328     3.04840894
H     -0.85175346     1.74001547     2.63472551
H     -2.41952205     0.28594696     0.39113782
H     -3.26776512    -3.39386949     3.40456401
H     -5.41978128    -2.83598072     3.76484515
H     -7.53989237    -1.98018815     4.12697424
H     -6.76842561     0.85210989     2.14660660
H     -4.02960168     1.36014823    -0.10274620
H     -5.51932981     2.00486877     0.54618652
H     -3.10846217     2.11891173     2.04198046
H     -0.62873831    -1.10046460    -0.87612527
H     -1.21464702    -3.45433695    -1.41294108
H      0.47764887    -3.44058773    -0.87448353
H     -1.59348847    -3.76793974     1.02654949
H      0.18116253    -2.23764533     1.84184623
H      1.85447390     0.22718864     0.07077476
H      1.10531263     1.18656069    -1.81931316
H      0.59417422     1.09336691    -4.26506036
H      0.99212849    -0.63490823    -4.26424479
H      3.08016223     1.49912687    -3.27431147
H      4.33966209    -0.40623670    -3.83849758
H      3.78011736     1.34386425    -0.92522428
H      5.74472989    -0.22199329    -1.45329927
H      3.76020841    -1.69214699    -1.30484389
H      5.80775442    -1.72816542     1.51274396
H      7.90416215    -2.17758754     0.87886003
H      9.63946521    -2.53793378    -0.93081040
H      9.01896663    -0.88101659    -0.91947801
H      7.80302415    -2.82028690    -2.53050503
H      8.11686205    -4.47224710    -0.08291711
H      6.49312834    -5.07144037    -1.68997565
H      6.35148466    -4.19491461     1.63257324
H      4.80814166    -5.75715762     0.74944120
H      4.55235679    -3.41563792    -0.70593640
H      3.08443990    -2.90485879     1.04845180
H     -2.54977629    -1.39208993    -2.13004963
H     -4.89466869    -1.84985158    -1.56499171
H     -6.49025108    -1.36358374     0.05010400
H     -8.83566058    -1.77322675     0.67778056
H    -12.21058756    -1.76424302     0.67082942
H    -10.13917082     0.62169026    -2.56925696
H     -7.79776172     1.03994129    -3.21442907
H     -5.88926581     2.18568100    -2.50591836
H     -3.53248635     2.62570588    -3.06632045

