%chk=cand01_quinolinecarbonyl_conf01.chk
%nprocshared=8
%mem=16GB
#P B3LYP/6-31G(d) SCRF=(PCM,Solvent=Water) Pop=MK NoSymm

cand01_quinolinecarbonyl conformer 1 (Boltzmann pop=0.484)

0 1
C     -2.23408534     4.01762872     2.53977175
C     -3.64986962     3.88402402     3.07907223
C     -4.71290078     4.11434250     2.00319981
C     -6.14871197     4.04954241     2.53275259
C     -6.57694729     2.64646905     2.97946905
C     -6.58632287     1.64982929     1.86305371
C     -7.44313682     1.66762371     0.84181525
C     -7.42917411     0.67955700    -0.22056073
C     -8.29659483     0.69195432    -1.23239447
C     -8.34000983    -0.30554624    -2.35524240
O     -9.68523672    -0.55683563    -2.78247459
C     -7.48299813     0.12786530    -3.55911375
C     -6.01387537     0.11051421    -3.28212872
C     -5.34974257     1.08268655    -2.65414461
C     -3.94397805     1.00172632    -2.33547219
C     -3.33070966     1.85567428    -1.51375869
C     -1.91801592     1.69328180    -1.15112877
O     -1.53851960     2.08432326    -0.06233001
O     -1.13332593     1.06386663    -2.09528446
C      0.11330796     0.54528367    -1.61480512
C      1.25044804     1.58813596    -1.72025269
O      1.01098078     2.70543038    -0.86644180
C      2.61530036     0.93134598    -1.39304861
C      3.72432260     1.94786516    -1.41302787
C      4.08646865     2.50919062    -2.65190626
O      3.44167760     2.10027366    -3.80475345
C      5.07611720     3.48216147    -2.68568029
C      5.69526267     3.92459622    -1.52554803
O      6.65344588     4.91439523    -1.62521572
C      5.31458518     3.36073730    -0.30682404
C      4.34156964     2.38078740    -0.24232184
C      3.92688513     1.83666866     1.09436495
O      2.64217450     2.26022512     1.51164648
O      2.88015757    -0.17273953    -2.27469174
C      1.91267894    -1.22446232    -2.17347133
C      2.28029311    -2.29384115    -3.19648704
O      2.42186790    -1.71297819    -4.46568288
C      0.46933113    -0.72250309    -2.43373091
O     -0.50799201    -1.74478734    -2.25355545
C     -0.35693230    -2.42983750    -1.01651432
O      0.72263512    -3.37239574    -1.00751351
C      0.96343910    -3.86846848     0.30889838
C      2.30932158    -4.58222377     0.38772404
O      3.37233246    -3.70430742     0.09635404
C     -0.23581039    -4.74848875     0.72779113
O     -0.41113196    -5.82810375    -0.16717136
C     -1.52447181    -3.89212298     0.76434196
O     -2.63779530    -4.73428199     0.99003753
C     -1.69060326    -3.07314581    -0.54175429
O     -2.68878871    -2.08357081    -0.36578389
C     -2.33963981    -1.07657246     0.58716527
O     -1.07746390    -1.19553806     1.27007076
C     -0.75703493    -0.03291944     2.04519859
C      0.65496804    -0.16128796     2.62773384
O      0.80923133    -1.34276780     3.39577414
C     -1.83806270     0.18309527     3.13727560
O     -1.86000598    -0.90711466     4.03898407
C     -3.23104881     0.33545741     2.47629235
O     -4.23147599     0.51278598     3.45757430
C     -3.49107908    -0.90905939     1.60501058
O     -4.73504918    -0.86629541     0.93102094
C      3.58888801    -2.83946693     1.13594886
O      2.95529785    -2.83627400     2.17536019
C      4.68627511    -1.85729017     0.93851378
C      5.11766943    -1.52299339    -0.35414698
C      6.12346024    -0.62542369    -0.54659102
C      6.76726998    -0.00729776     0.54437949
N      7.77123817     0.87831471     0.31079775
C      8.32365664     1.42480131     1.36245658
C      7.96008570     1.16887034     2.68375377
C      6.96284019     0.28331517     2.93585406
C      6.33302067    -0.34046765     1.84904535
C      5.28894844    -1.27081718     2.01809226
H     -1.48159094     3.82602689     3.30720003
H     -2.05450923     5.01983130     2.14767221
H     -2.05728999     3.31875877     1.72132108
H     -3.80680010     4.59310261     3.90162993
H     -3.78873059     2.89334037     3.52824663
H     -4.53229466     5.08721192     1.52883645
H     -4.58609969     3.37704310     1.20246864
H     -6.25800414     4.75815965     3.36282760
H     -6.84313752     4.39969629     1.75898784
H     -5.92073303     2.29585259     3.78442640
H     -7.57953153     2.68165882     3.42313430
H     -5.83849138     0.87110187     1.88466771
H     -8.20385570     2.43068845     0.77998324
H     -6.66813692    -0.08165340    -0.15462848
H     -9.02459034     1.48376666    -1.28441281
H     -7.94480038    -1.26602312    -1.98713701
H    -10.24314783    -0.85097170    -2.04158268
H     -7.71705661    -0.52288058    -4.40903217
H     -7.79261210     1.13095018    -3.86736860
H     -5.47427497    -0.78272796    -3.55778931
H     -5.86604106     1.97310328    -2.32917307
H     -3.37735152     0.18460277    -2.75542291
H     -3.87863086     2.65138548    -1.03981216
H     -0.03076466     0.27909121    -0.56386302
H      1.28384317     1.97154660    -2.75038691
H      0.07621842     2.64947425    -0.57442910
H      2.54270023     0.49638800    -0.38986130
H      3.77504098     2.58672924    -4.58015140
H      5.36988361     3.92341637    -3.61993027
H      6.98894615     5.16609695    -0.74716321
H      5.78507893     3.69735412     0.59836511
H      3.94402032     0.74206876     1.08343178
H      4.63597365     2.14278569     1.87208821
H      2.08091849     2.46090639     0.72437314
H      1.97989959    -1.63396082    -1.15801588
H      1.49890217    -3.05977909    -3.25414073
H      3.22152911    -2.78998877    -2.93350643
H      2.87706170    -0.84906621    -4.36890256
H      0.39488193    -0.45271424    -3.49683310
H     -0.08681704    -1.66482087    -0.28310554
H      1.00606815    -2.98237407     0.95974685
H      2.47957370    -5.01001568     1.38297515
H      2.34305362    -5.39883854    -0.34065440
H     -0.05658515    -5.19859840     1.71589165
H     -0.30783223    -5.50626898    -1.08277954
H     -1.50208824    -3.18996679     1.60825631
H     -2.53042986    -5.55110028     0.46350612
H     -2.06084519    -3.73142264    -1.33677894
H     -2.27170774    -0.15512485    -0.00450211
H     -0.78878135     0.82208302     1.35622522
H      1.39392253    -0.15047999     1.81649852
H      0.88651749     0.69385804     3.27402279
H      1.55142152    -1.88771686     3.05342898
H     -1.60662806     1.08194286     3.73001199
H     -0.95137611    -1.26830168     4.07016290
H     -3.25418700     1.21982632     1.82510139
H     -4.14641617    -0.19425537     4.12090150
H     -3.50237536    -1.78871375     2.26428416
H     -4.75194232    -1.61364237     0.29622446
H      4.63437039    -1.99032412    -1.19453045
H      6.44233947    -0.36820496    -1.54179001
H      9.12794392     2.11906148     1.16117776
H      8.46388878     1.66212027     3.50143182
H      6.65457151     0.05661058     3.94229971
H      4.95728138    -1.52911174     3.00805785

