%chk=cand01_quinolinecarbonyl_conf02.chk
%nprocshared=8
%mem=16GB
#P B3LYP/6-31G(d) SCRF=(PCM,Solvent=Water) Pop=MK NoSymm

cand01_quinolinecarbonyl conformer 2 (Boltzmann pop=0.138)

0 1
C     -2.21010339     4.04295835     2.52874297
C     -3.62678603     3.90645566     3.06480730
C     -4.68790292     4.12390417     1.98430390
C     -6.12481622     4.05719662     2.51087652
C     -6.55011589     2.65508166     2.96352695
C     -6.56208274     1.65544826     1.84984758
C     -7.43076569     1.66210004     0.83855934
C     -7.41484928     0.67676490    -0.22617085
C     -8.31370277     0.66070662    -1.20965904
C     -8.36501074    -0.33488149    -2.33489378
O     -9.72491083    -0.54223537    -2.74203736
C     -7.48489882     0.08346468    -3.52796954
C     -6.02037369     0.06404753    -3.22713549
C     -5.35317703     1.05736005    -2.63672261
C     -3.94968913     0.97896034    -2.30782400
C     -3.33435702     1.85468064    -1.51093261
C     -1.92104973     1.69770342    -1.14684254
O     -1.54211736     2.08886782    -0.05790819
O     -1.13562370     1.07091578    -2.09235486
C      0.11145474     0.55123896    -1.61461021
C      1.24807257     1.59446244    -1.71910567
O      1.00902838     2.70894823    -0.86161100
C      2.61405813     0.93794460    -1.39613671
C      3.72218444     1.95536389    -1.42114274
C      4.07835628     2.51575084    -2.66217339
O      3.42811418     2.10596503    -3.81166589
C      5.06776826     3.48877718    -2.70146463
C      5.69221835     3.93235659    -1.54467216
O      6.65089339     4.92112619    -1.65021329
C      5.31647827     3.37029619    -0.32355273
C      4.34406244     2.39011999    -0.25357310
C      3.93476714     1.84846502     1.08581115
O      2.65329248     2.27575472     1.50887161
O      2.87678704    -0.16604570    -2.27869726
C      1.90890696    -1.21750125    -2.17803230
C      2.27582617    -2.28564710    -3.20248126
O      2.41710236    -1.70336398    -4.47105996
C      0.46578805    -0.71433775    -2.43708199
O     -0.51340479    -1.73549701    -2.25918113
C     -0.35959183    -2.42801625    -1.02669187
O      0.71689046    -3.37409191    -1.02887038
C      0.96158407    -3.88006703     0.28293297
C      2.30694067    -4.59595863     0.35207654
O      3.36988994    -3.71319825     0.07538910
C     -0.23833204    -4.75957508     0.70037282
O     -0.42191613    -5.83056295    -0.20324220
C     -1.52327573    -3.89828937     0.75037286
O     -2.63862364    -4.73776452     0.97585487
C     -1.69303937    -3.07001890    -0.54930435
O     -2.68770042    -2.07911374    -0.36095891
C     -2.32748496    -1.07420160     0.59008744
O     -1.06408317    -1.19968297     1.26954301
C     -0.73348243    -0.03465200     2.03715329
C      0.67999559    -0.16735009     2.61488889
O      0.82949568    -1.34131839     3.39521374
C     -1.80911309     0.19527373     3.13171450
O     -1.83524959    -0.88898243     4.04040972
C     -3.20335299     0.35240666     2.47454236
O     -4.19935707     0.54171903     3.45799103
C     -3.47352449    -0.89599257     1.61178920
O     -4.72020251    -0.85239553     0.94332381
C      3.57919303    -2.86042148     1.12639452
O      2.94067066    -2.87236596     2.16275300
C      4.67264659    -1.87068434     0.94652258
C      5.11698926    -1.52582228    -0.33899546
C      6.12034643    -0.62183937    -0.51383882
C      6.74809550    -0.00715364     0.58849151
N      7.74932744     0.88603647     0.37252506
C      8.28604000     1.42895161     1.43415282
C      7.90853046     1.16236133     2.74941288
C      6.91355065     0.26952200     2.98401769
C      6.30034424    -0.35082029     1.88582174
C      5.25935443    -1.28759502     2.03663652
H     -1.45890638     3.86212527     3.30007349
H     -2.03451157     5.04252087     2.12810336
H     -2.02747364     3.33752620     1.71722811
H     -3.78941622     4.62080223     3.88173382
H     -3.76197213     2.91835886     3.52074973
H     -4.51017625     5.09411430     1.50338686
H     -4.55565794     3.38139619     1.18930915
H     -6.23779048     4.76953525     3.33729459
H     -6.81878328     4.40155570     1.73403461
H     -5.89105488     2.30772239     3.76750260
H     -7.55143354     2.69044734     3.41010260
H     -5.80565177     0.88505045     1.86404551
H     -8.20184874     2.41536124     0.78581454
H     -6.62883913    -0.06022190    -0.18520896
H     -9.08358727     1.41376442    -1.22672326
H     -8.00217445    -1.29945695    -1.94504417
H     -9.79548567    -1.22834682    -3.42943540
H     -7.69542710    -0.56683463    -4.38333779
H     -7.78372077     1.08667989    -3.84654971
H     -5.48632225    -0.84495239    -3.45856441
H     -5.86416508     1.96573518    -2.35629995
H     -3.38561875     0.14727121    -2.70218518
H     -3.87972496     2.66636656    -1.06178384
H     -0.03087321     0.28172405    -0.56445215
H      1.27928604     1.98105077    -2.74809400
H      0.07394114     2.65289533    -0.57076937
H      2.54527906     0.50326422    -0.39259276
H      3.75676514     2.59270627    -4.58886485
H      5.35716704     3.92910734    -3.63750398
H      6.99254616     5.17216698    -0.77446994
H      5.79072256     3.70821645     0.57920701
H      3.94942094     0.75378218     1.07638396
H      4.64834597     2.15410876     1.85962353
H      2.08746905     2.47281815     0.72398891
H      1.97661523    -1.62825612    -1.16307537
H      1.49431942    -3.05136233    -3.26091374
H      3.21704694    -2.78216266    -2.94005436
H      2.87100900    -0.83894602    -4.37329210
H      0.39118370    -0.44164074    -3.49944436
H     -0.08334655    -1.66824298    -0.29008145
H      1.00837973    -2.99870757     0.93987576
H      2.47633900    -5.03807895     1.34116286
H      2.34118748    -5.40166842    -0.38832416
H     -0.05605078    -5.21892593     1.68363685
H     -0.31978231    -5.50138781    -1.11637706
H     -1.49333685    -3.20184341     1.59885704
H     -2.53789258    -5.55067223     0.44199561
H     -2.06943655    -3.72169953    -1.34688286
H     -2.25533827    -0.15418342    -0.00322542
H     -0.76285771     0.81675517     1.34366688
H      1.41532855    -0.17038996     1.80033033
H      0.92049001     0.69302543     3.25086233
H      1.55812853    -1.90097348     3.04760035
H     -1.56986921     1.09650850     3.71768445
H     -0.92869508    -1.25506569     4.07231626
H     -3.22307408     1.23328154     1.81845044
H     -4.11611685    -0.16163903     4.12551438
H     -3.48470572    -1.77147752     2.27661945
H     -4.74620535    -1.60796650     0.31882818
H      4.64619203    -1.99062160    -1.18791212
H      6.44963232    -0.35681757    -1.50357009
H      9.08843897     2.12930641     1.24694147
H      8.39973714     1.65322356     3.57615103
H      6.59445302     0.03479484     3.98524724
H      4.91741476    -1.55385683     3.02101344

