%chk=cand06_biphenyl_4SO2NH2_conf02.chk
%nprocshared=8
%mem=16GB
#P B3LYP/6-31G(d) SCRF=(PCM,Solvent=Water) Pop=MK NoSymm

cand06_biphenyl_4SO2NH2 conformer 2 (Boltzmann pop=0.262)

0 1
C      1.14008736    -2.14642293     5.19825383
C      1.65342004    -0.91624569     4.46734375
C      3.17573135    -0.88033910     4.34933721
C      3.68641196     0.32523022     3.56041308
C      5.21248852     0.35505844     3.45833402
C      5.73314708     1.52444909     2.68955827
C      6.73575343     1.47763955     1.81049807
C      7.19306367     2.65261482     1.07925415
C      7.28576712     3.86343648     1.62822577
C      7.48371078     5.12992207     0.83845849
O      7.68866860     4.83544779    -0.54788448
C      6.27277297     6.07078909     1.02879040
C      4.97629401     5.35438346     0.82615211
C      4.76479446     4.49403292    -0.16969541
C      3.58579453     3.67134717    -0.29084372
C      3.32944768     2.90804613    -1.35460910
C      2.16242997     2.02547541    -1.41184910
O      1.82028819     1.55611122    -2.48220046
O      1.51773181     1.80075729    -0.22136328
C      0.43737144     0.87614196    -0.33548141
C     -0.89825925     1.61645289    -0.63173264
O     -0.83323123     2.25597586    -1.90688469
C     -2.11325265     0.64775041    -0.54163192
C     -3.42980522     1.32669534    -0.86209192
C     -4.26169886     1.81889931     0.16693417
O     -3.91570088     1.72861584     1.49714093
C     -5.48440956     2.39784394    -0.15149690
C     -5.92286379     2.49278857    -1.46217389
O     -7.16273047     3.00500902    -1.79153134
C     -5.07607728     2.03444905    -2.46800527
C     -3.84213620     1.47993362    -2.18702011
C     -3.01662334     1.00414612    -3.34664754
O     -3.42282385    -0.26664148    -3.82430766
O     -2.11373511    -0.05696793     0.72139836
C     -0.93732163    -0.85384019     0.89491219
C     -1.04845296    -1.75212480     2.12004089
O     -1.09815899    -1.01786141     3.31388897
C      0.30926933     0.04995387     0.96227874
O      1.48717885    -0.66370072     1.31072601
C      1.95697555    -1.52577692     0.28671881
O      0.92629658    -2.32150736    -0.32352991
C      1.42070436    -3.15199139    -1.37587762
C      0.29868392    -3.82485248    -2.20273519
O     -0.96134236    -3.23056933    -2.01772049
C      2.36770201    -4.20605077    -0.74953176
O      1.71051625    -4.92797240     0.28293041
C      3.59531670    -3.48475543    -0.16176863
O      4.47414182    -4.40786732     0.44685346
C      3.13368185    -2.39288946     0.83448657
O      4.22399420    -1.57213183     1.21968358
C      4.90341163    -0.99555648     0.10495736
O      4.16356271    -1.03732453    -1.12439735
C      4.78273952    -0.38006310    -2.22947218
C      3.83946372    -0.49612757    -3.43147380
O      3.57052804    -1.83699195    -3.74245014
C      6.18562749    -0.99114082    -2.51449119
O      6.12001544    -2.32612138    -2.98258346
C      7.05891851    -0.96279044    -1.23572046
O      8.27418879    -1.64373373    -1.48213307
C      6.29832984    -1.64881952    -0.08411050
O      7.07132801    -1.62261088     1.10395264
C     -1.60434235    -3.74923178    -0.92386250
O     -1.15474127    -4.60612622    -0.18650062
C     -2.94259978    -3.16090294    -0.66517456
C     -3.47228433    -2.25933024    -1.57206953
C     -4.64501266    -1.59947708    -1.30132754
C     -5.32319249    -1.81074903    -0.10416757
C     -6.47777515    -0.95606466     0.24380533
C     -6.59066879    -0.40831764     1.52107973
C     -7.57552514     0.51295171     1.80620311
C     -8.45987925     0.89939636     0.82611255
S     -9.69183851     2.14323708     1.19474808
N     -8.85621470     3.52153154     0.65661965
O    -10.89811755     1.90556001     0.34746902
O     -9.85675027     2.22510489     2.67737856
C     -8.39056071     0.34499577    -0.43130662
C     -7.40722264    -0.57654534    -0.72436377
C     -4.81321477    -2.75970810     0.78209543
C     -3.64369958    -3.43130210     0.50059382
H      0.04919425    -2.15817753     5.25129241
H      1.45314855    -3.06232975     4.69472894
H      1.52312572    -2.18957199     6.21890327
H      1.30380202    -0.00473911     4.96830648
H      1.21583573    -0.87166167     3.46267114
H      3.62397074    -0.88581306     5.34971563
H      3.52815598    -1.80148743     3.87103241
H      3.32590146     1.25196246     4.02111560
H      3.25372553     0.31185291     2.55196464
H      5.65689183     0.34949508     4.46051044
H      5.55443380    -0.56913563     2.98102689
H      5.25195102     2.47173352     2.87391942
H      7.20584876     0.53380713     1.57699103
H      7.38802982     2.53194750     0.02336764
H      7.09095365     3.97342942     2.68237932
H      8.40565208     5.61789564     1.19718142
H      7.97403509     5.62397732    -1.04367183
H      6.34225720     6.90933138     0.32954990
H      6.30166024     6.50688092     2.03378989
H      4.19517362     5.50529566     1.55641846
H      5.54454611     4.33025409    -0.89696004
H      2.89966206     3.64470476     0.54119173
H      3.97287279     2.92624263    -2.21783201
H      0.66530995     0.20040421    -1.16957504
H     -1.02809849     2.41417403     0.11287341
H      0.07701587     2.12708584    -2.25135683
H     -1.96368611    -0.13860920    -1.29214701
H     -3.12416029     1.15760199     1.54716504
H     -6.11508245     2.74217596     0.64531495
H     -7.69292341     3.18689864    -0.97956854
H     -5.41122068     2.10376271    -3.48704045
H     -1.96246036     0.94456798    -3.06358074
H     -3.08394268     1.73747313    -4.15972690
H     -3.02638016    -0.47187021    -4.69019764
H     -0.85684276    -1.47498132    -0.00629282
H     -1.94067957    -2.38306754     2.05935928
H     -0.17832677    -2.41537165     2.17891915
H     -1.86750484    -0.41766504     3.30917635
H      0.16045908     0.75923743     1.78799302
H      2.35143775    -0.85969167    -0.49034056
H      1.99908705    -2.46953047    -2.02059784
H      0.19895805    -4.88463690    -1.93968095
H      0.52240699    -3.79118205    -3.27694870
H      2.68303038    -4.94188225    -1.50552142
H      0.73356935    -4.84149291     0.17254941
H      4.16402102    -3.01006999    -0.97154664
H      3.96592144    -4.99194089     1.03674995
H      2.78292318    -2.88387031     1.74991337
H      5.03933376     0.06605711     0.34846738
H      4.89769232     0.67484735    -1.94037151
H      4.25064800     0.00325265    -4.31680083
H      2.86911264    -0.03875453    -3.20507588
H      4.41289611    -2.32496578    -3.64753197
H      6.67835728    -0.40629919    -3.30761628
H      7.01614262    -2.71195248    -2.95561583
H      7.29368620     0.07363667    -0.95326542
H      8.76095582    -1.76520894    -0.64862569
H      6.16251812    -2.70337916    -0.36189461
H      6.65977783    -2.19750695     1.77561911
H     -2.92545340    -2.04580303    -2.47454535
H     -5.00853941    -0.85845617    -1.99274204
H     -5.86700622    -0.67161793     2.27299631
H     -7.65098162     0.95156236     2.78828991
H     -8.48360443     3.98388632     1.45259650
H     -9.52772258     4.12417758     0.24290610
H     -9.09665805     0.65453403    -1.18502639
H     -7.33847705    -0.99495225    -1.71404004
H     -5.33626187    -2.95094737     1.70394213
H     -3.24536279    -4.15729683     1.18910493

