%chk=cand06_biphenyl_4SO2NH2_conf01.chk
%nprocshared=8
%mem=16GB
#P B3LYP/6-31G(d) SCRF=(PCM,Solvent=Water) Pop=MK NoSymm

cand06_biphenyl_4SO2NH2 conformer 1 (Boltzmann pop=0.333)

0 1
C      1.04613433    -2.17563590     5.35523747
C      2.13702380    -1.74796227     4.38651812
C      2.55649376    -0.28802495     4.56281728
C      3.65236092     0.14841978     3.58761584
C      4.14683546     1.57296668     3.85268134
C      5.30258021     1.98518239     2.99837268
C      6.12607349     2.99667890     3.28030694
C      7.21181961     3.43640979     2.41848009
C      7.66325196     2.74051481     1.37702739
C      8.65234728     3.23532239     0.36274533
O      9.12482051     2.15421118    -0.45242738
C      8.06311428     4.36426147    -0.51479437
C      6.73358779     4.00886225    -1.09249850
C      5.60486136     4.05063437    -0.38091602
C      4.34056013     3.50133633    -0.81706054
C      3.40340587     3.08813635     0.04002853
C      2.19978985     2.38012626    -0.39632858
O      1.93123224     2.29871923    -1.58025064
O      1.46345863     1.82190849     0.62260493
C      0.47159086     0.88804505     0.18937544
C     -0.88664411     1.59342915    -0.07480458
O     -0.79675284     2.46577516    -1.20141977
C     -2.03023862     0.55691134    -0.26109887
C     -3.33826745     1.22565782    -0.62710698
C     -4.25338392     1.63091339     0.36659022
O     -4.02813318     1.36580374     1.69892126
C     -5.42033731     2.29214261     0.00122088
C     -5.72396697     2.54341800    -1.32786843
O     -6.89812741     3.15345977    -1.72480583
C     -4.80544069     2.14458410    -2.29563224
C     -3.62160449     1.51612214    -1.96084542
C     -2.69543823     1.10591741    -3.06765282
O     -2.90352394    -0.23361928    -3.48383134
O     -2.09734422    -0.32957463     0.87848527
C     -0.90216715    -1.11066731     1.02206992
C     -1.05196738    -2.13318029     2.14217657
O     -1.23312589    -1.52459915     3.39227016
C      0.31193328    -0.19606742     1.28370680
O      1.51572477    -0.91271583     1.53842254
C      1.92927947    -1.76325554     0.47949073
O      1.01719351    -2.83060210     0.19296358
C      1.38901692    -3.56259317    -0.97740300
C      0.28120653    -4.53357740    -1.38181886
O     -0.96355471    -3.87927387    -1.51134022
C      2.72613242    -4.29774928    -0.70790917
O      2.58259042    -5.24486661     0.33164932
C      3.84282762    -3.29278128    -0.34111130
O      4.99316428    -4.00051668     0.07657101
C      3.36257235    -2.30354926     0.75070589
O      4.28078850    -1.23432615     0.89684117
C      4.42464679    -0.45074711    -0.28736557
O      3.62904411    -0.85767908    -1.41287898
C      3.70325131     0.03043710    -2.52781002
C      2.74972047    -0.46307054    -3.61617464
O      3.04686285    -1.78383974    -3.98467500
C      5.16708090     0.15239479    -3.03212462
O      5.66076704    -1.05942136    -3.57143411
C      6.09543839     0.59501813    -1.87455438
O      7.43257905     0.60845803    -2.33536769
C      5.91747955    -0.38060141    -0.69438952
O      6.73166704    -0.03775591     0.41063509
C     -1.80000727    -4.18744101    -0.47110054
O     -1.54888733    -4.99164106     0.40658086
C     -3.08436959    -3.44628886    -0.43526021
C     -3.34793224    -2.45415043    -1.36500991
C     -4.48893090    -1.69402242    -1.26894019
C     -5.39748096    -1.89604493    -0.23242314
C     -6.54382106    -0.98297932    -0.04501860
C     -6.86176998    -0.51201408     1.22825839
C     -7.86839590     0.41206262     1.40524938
C     -8.56945801     0.87983528     0.31873663
S     -9.83698071     2.11769146     0.56860826
N     -8.85877042     3.50685436     0.53103133
O    -10.77436196     2.11001083    -0.59323289
O    -10.39256311     1.95158839     1.94561107
C     -8.29052486     0.40989625    -0.94462856
C     -7.28394380    -0.51506534    -1.12986076
C     -5.14383398    -2.92283596     0.67542874
C     -4.00492517    -3.68738293     0.57277006
H      0.14481721    -1.57578115     5.21873508
H      0.76325052    -3.22087086     5.21612856
H      1.36584094    -2.05419097     6.39125145
H      1.79764711    -1.89859125     3.35511820
H      3.01662825    -2.39457505     4.49738869
H      1.68208761     0.36302881     4.44720553
H      2.89821613    -0.13058724     5.59249187
H      3.28773419     0.06268765     2.55634360
H      4.49660445    -0.54727499     3.65099638
H      3.32196057     2.28194871     3.71501973
H      4.43670028     1.66393967     4.90586187
H      5.44595141     1.43837731     2.08177100
H      5.98319333     3.56413036     4.18870157
H      7.63487327     4.40798650     2.62725631
H      7.23455403     1.77779563     1.16237892
H      9.53101598     3.63443479     0.89687261
H      9.65091855     1.53091848     0.08070506
H      8.77349610     4.60058515    -1.31424562
H      7.95571039     5.27911711     0.07783863
H      6.71021902     3.58937571    -2.08590602
H      5.63099564     4.42693580     0.63000624
H      4.17782398     3.35843329    -1.87323450
H      3.54242353     3.18777937     1.10321298
H      0.82898250     0.43668174    -0.74265530
H     -1.12231889     2.22576731     0.79285884
H      0.15261097     2.55144095    -1.43261006
H     -1.75791684    -0.09927388    -1.09767725
H     -3.25848403     0.76237756     1.73353436
H     -6.11177425     2.58221653     0.76868873
H     -7.51089706     3.27847587    -0.96180035
H     -5.04110639     2.33277953    -3.32738746
H     -1.65613947     1.21030249    -2.74102533
H     -2.82849481     1.77960379    -3.92287359
H     -2.47512041    -0.41821530    -4.33886745
H     -0.74813791    -1.63624839     0.07066991
H     -1.89065711    -2.81103084     1.95167966
H     -0.14547691    -2.74385284     2.20525068
H     -2.03570514    -0.97005910     3.37982106
H      0.11718808     0.33508086     2.22600229
H      1.96997739    -1.13674301    -0.41639698
H      1.52312325    -2.81526644    -1.77452500
H      0.18615682    -5.31795155    -0.62224587
H      0.50909582    -5.02316845    -2.33583924
H      3.02687880    -4.87298860    -1.59705967
H      2.04055686    -4.85997134     1.04651919
H      4.15398762    -2.71838596    -1.22323133
H      4.72010874    -4.74776989     0.64447687
H      3.35793593    -2.82411441     1.71498286
H      4.08363498     0.55614522    -0.01206473
H      3.36878420     1.00952812    -2.16028063
H      2.79459627     0.17611175    -4.50640207
H      1.71623687    -0.45402694    -3.25334141
H      4.02215135    -1.86250229    -4.00203704
H      5.20988495     0.89674620    -3.84324516
H      6.62836313    -0.98456064    -3.67413163
H      5.82659852     1.60602588    -1.54289446
H      8.01255266     1.05581068    -1.68369906
H      6.23019585    -1.37662911    -1.03928116
H      6.62934753    -0.71854506     1.10179819
H     -2.62680389    -2.26001696    -2.14085247
H     -4.65408868    -0.89320411    -1.96940861
H     -6.28293564    -0.84444480     2.07300054
H     -8.10732332     0.78325841     2.38891590
H     -8.64474370     3.76480815     1.46555912
H     -9.39841176     4.23750768     0.13152822
H     -8.85364305     0.78629026    -1.78354906
H     -7.05524026    -0.87472276    -2.11853483
H     -5.84492082    -3.10481165     1.47262382
H     -3.79954097    -4.46773231     1.28623760

