%chk=t05_C12_omega_COOH_conf01.chk
%nprocshared=8
%mem=16GB
#P B3LYP/6-31G(d) SCRF=(PCM,Solvent=Water) Pop=MK NoSymm

t05_C12_omega_COOH conformer 1 (Boltzmann pop=0.454)

0 1
O      0.49245441    -2.26048108     1.73189555
C     -0.14578525    -2.02882935     0.48197164
C     -1.66793543    -1.90891522     0.73316141
O     -1.98192680    -0.72904092     1.45387067
C     -2.48155868    -1.99326371    -0.58514113
C     -3.96567289    -1.88294639    -0.34484669
C     -4.54669832    -2.60786259     0.71803143
O     -3.78840731    -3.50212921     1.45024561
C     -5.88979907    -2.40926822     1.01813541
C     -6.67030541    -1.52700215     0.28778035
O     -7.97906512    -1.27793606     0.65632052
C     -6.09767457    -0.89334914    -0.81354661
C     -4.77226405    -1.08109682    -1.15144565
C     -4.25942456    -0.38540873    -2.37882142
O     -4.05689335     0.99856858    -2.19332455
O     -2.14804181    -3.18376203    -1.32080965
C     -0.77145664    -3.19965182    -1.71492082
C     -0.52509312    -4.43087200    -2.57914751
O     -0.98501537    -5.57834091    -1.91691299
C      0.17599514    -3.19041694    -0.48824599
O      1.54269625    -3.19593668    -0.88618125
C      1.97638495    -1.92940695    -1.36002268
O      0.99005518    -1.21630802    -2.11168884
C      1.36082077     0.13886596    -2.36634171
C      0.19632437     0.85284026    -3.04739734
O     -0.99694040     0.79575320    -2.27570520
C     -1.01350977     1.60511413    -1.15883597
O     -1.90777677     1.52898817    -0.33401231
C      0.07739800     2.59947909    -0.92970588
C      0.25871539     3.69395355    -1.76375828
C      1.31619914     4.55300986    -1.56513828
C      2.20924629     4.35843183    -0.51161988
C      3.38226929     5.23603863    -0.31529332
C      4.58624326     4.71459313     0.15687504
C      5.68406971     5.52739051     0.33604006
C      5.60275468     6.87481754     0.05069591
C      4.41819644     7.40952540    -0.41260971
C      3.31795621     6.59983503    -0.59388337
C      1.98403771     3.28838709     0.34944011
C      0.93766348     2.42508744     0.13949604
C      2.65556611     0.19892991    -3.22110656
O      2.42661338    -0.27146300    -4.53445440
C      3.79574735    -0.62140983    -2.56915775
O      4.86541313    -0.72562403    -3.49022574
C      3.29115965    -2.02818502    -2.17626824
O      4.31270770    -2.76087979    -1.52073453
C      4.39342877    -2.45005436    -0.14048013
O      4.24157720    -1.05750061     0.17375664
C      4.18364895    -0.81542364     1.58199179
C      3.86778779     0.65864391     1.83114739
O      4.80064693     1.50113555     1.20483527
C      5.50926736    -1.25568158     2.26328193
O      6.61636518    -0.48285682     1.83947594
C      5.79107295    -2.74868012     1.96692918
O      7.07596639    -3.09092006     2.45190789
C      5.71831653    -2.99469479     0.44615247
O      5.88841332    -4.37174154     0.15670004
C      0.82236109    -1.09037325     2.36094851
O      0.91601846    -0.00634954     1.82907375
C      1.01774891    -1.20505648     3.84690298
C     -0.27223979    -0.83094854     4.57223379
C     -0.62083300     0.65306354     4.43500323
C     -2.01190540     1.00385902     4.98509381
C     -3.15537455     0.73405402     3.99531389
C     -3.27173239     1.80847487     2.91073709
C     -4.44042548     1.58363473     1.94865178
C     -4.61646133     2.74058777     0.96275654
C     -5.73179735     2.52530520    -0.06263360
C     -7.12708630     2.42383466     0.54007076
C     -8.17507653     2.23601433    -0.52249645
O     -8.59753876     1.12921283    -0.78005422
O     -8.57558438     3.35730125    -1.16575968
H      0.22744822    -1.08056629     0.07770289
H     -1.95545637    -2.74360970     1.38670043
H     -1.88972538     0.04234846     0.84425210
H     -2.15581085    -1.14616841    -1.20296882
H     -4.33569541    -3.97218669     2.10409758
H     -6.34004029    -2.92083583     1.84704536
H     -8.30258276    -0.50236986     0.15108478
H     -6.70725553    -0.23502619    -1.40534486
H     -4.99413974    -0.48608773    -3.18635880
H     -3.33889271    -0.84480571    -2.75683329
H     -3.30524049     1.15389652    -1.57141627
H     -0.60123197    -2.28198540    -2.29201702
H      0.54388937    -4.56238837    -2.78399161
H     -1.04840707    -4.35168027    -3.54009135
H     -1.87180125    -5.39528968    -1.54813748
H      0.03199893    -4.13342451     0.05749355
H      2.18236443    -1.32296832    -0.46739558
H      1.54371900     0.59375090    -1.38353680
H     -0.01692359     0.34166580    -3.99229476
H      0.43997080     1.88876224    -3.29571002
H     -0.43348800     3.85831218    -2.57248812
H      1.47371020     5.37407266    -2.24329626
H      4.65506227     3.66257499     0.38240235
H      6.60860170     5.10979968     0.70061133
H      6.46278363     7.50927394     0.19155536
H      4.35270124     8.46319148    -0.63097505
H      2.39024858     7.02354283    -0.93860536
H      2.64371214     3.14241979     1.18719539
H      0.78741566     1.57893462     0.78597425
H      2.97201794     1.25024592    -3.31675728
H      3.28663345    -0.41506873    -4.97718803
H      4.17396921    -0.10693556    -1.67327916
H      5.53743784    -1.34302130    -3.15184038
H      3.07255438    -2.58090330    -3.09930497
H      3.55596370    -2.98129777     0.33435380
H      3.36207664    -1.43819613     1.96791828
H      3.84502847     0.88677675     2.90345025
H      2.88401370     0.89937101     1.41942107
H      5.66655660     1.04930966     1.26328817
H      5.42225100    -1.10687808     3.35159853
H      7.43693593    -0.92532801     2.13036814
H      5.05035049    -3.38692180     2.47165436
H      7.31820666    -3.98140518     2.14408214
H      6.55025037    -2.45286825    -0.02322372
H      5.64539996    -4.54655780    -0.76921398
H      1.31948610    -2.23063818     4.08301138
H      1.83791258    -0.55310043     4.15970148
H     -0.20783067    -1.09588388     5.63467079
H     -1.09119675    -1.43629541     4.16673534
H      0.15271972     1.24492706     4.93972697
H     -0.55754413     0.94261696     3.38016696
H     -2.17241004     0.44453452     5.91537307
H     -2.04819753     2.06059607     5.27882683
H     -4.11020993     0.67129289     4.53190938
H     -3.02151045    -0.24795615     3.52777832
H     -2.33796193     1.87023375     2.34027393
H     -3.37975848     2.79055472     3.38596172
H     -4.29119751     0.64655162     1.39970006
H     -5.36215157     1.43851955     2.52233835
H     -3.66336804     2.90605949     0.44470564
H     -4.80667167     3.66567488     1.51879194
H     -5.52421569     1.61861296    -0.63867464
H     -5.72616003     3.33547817    -0.80285340
H     -7.35856931     3.32747862     1.11149733
H     -7.18449009     1.59030090     1.24530418
H     -9.23551856     3.11720420    -1.83048929

