%chk=t05_C12_omega_COOH_conf02.chk
%nprocshared=8
%mem=16GB
#P B3LYP/6-31G(d) SCRF=(PCM,Solvent=Water) Pop=MK NoSymm

t05_C12_omega_COOH conformer 2 (Boltzmann pop=0.168)

0 1
O      0.48422170    -2.24982419     1.79907870
C     -0.13857422    -2.05204212     0.53528733
C     -1.66504401    -1.94180760     0.75994300
O     -2.00457500    -0.76433377     1.47359841
C     -2.45494646    -2.04812959    -0.57136627
C     -3.94133190    -1.93238516    -0.34846356
C     -4.53104919    -2.68733278     0.68830087
O     -3.77602958    -3.59989954     1.40129481
C     -5.87640540    -2.49818765     0.98356999
C     -6.65074061    -1.59360621     0.27451007
O     -7.96379508    -1.36010665     0.63760185
C     -6.06767395    -0.92323930    -0.79922341
C     -4.73929566    -1.09938838    -1.13241610
C     -4.22054208    -0.35655793    -2.32979043
O     -4.05458532     1.02546739    -2.09988305
O     -2.11473323    -3.25933083    -1.27093735
C     -0.73054445    -3.29595046    -1.63654372
C     -0.47374818    -4.53618223    -2.48551626
O     -1.42427344    -4.63741745    -3.51391698
C      0.20764364    -3.23465089    -0.40221358
O      1.57620092    -3.22547722    -0.79352875
C      1.99055589    -1.95912304    -1.28430171
O      0.98811986    -1.26099404    -2.02943480
C      1.34586963     0.09475236    -2.30137508
C      0.17046740     0.79340746    -2.97956334
O     -1.01001208     0.75347121    -2.18785142
C     -1.00927268     1.59269445    -1.09324198
O     -1.89429547     1.54295016    -0.25646851
C      0.08806380     2.58891807    -0.90477700
C      0.25630693     3.66754954    -1.76185697
C      1.32017549     4.52643418    -1.59919353
C      2.23387818     4.34733215    -0.56057380
C      3.41308160     5.22433342    -0.40237887
C      4.62082157     4.70984696     0.06799545
C      5.72452259     5.52170318     0.21179966
C      5.64557726     6.86158967    -0.10760369
C      4.45746214     7.38968477    -0.56935424
C      3.35135586     6.58082386    -0.71531620
C      2.02319044     3.29260557     0.32273759
C      0.96962927     2.43027421     0.14930105
C      2.63324355     0.15970604    -3.16722061
O      2.39880283    -0.32193871    -4.47542614
C      3.78644569    -0.64456623    -2.51833358
O      4.85016634    -0.74485634    -3.44656584
C      3.29824616    -2.05303169    -2.11208700
O      4.33172228    -2.77162673    -1.45932185
C      4.41352269    -2.45528293    -0.08053193
O      4.25300627    -1.06241265     0.22801254
C      4.19058573    -0.81445416     1.63505817
C      3.86969529     0.66006338     1.87576893
O      4.80015335     1.50152763     1.24442360
C      5.51605428    -1.24718519     2.32192098
O      6.62126291    -0.46958175     1.90216284
C      5.80771750    -2.73906344     2.02929142
O      7.09283023    -3.07282586     2.51954570
C      5.74150929    -2.98880733     0.50882751
O      5.92326734    -4.36519428     0.22315110
C      0.81057727    -1.06532895     2.40047829
O      0.89480679     0.00757082     1.84537090
C      1.01508849    -1.14740629     3.88735164
C     -0.26888200    -0.75488617     4.61312632
C     -0.61514022     0.72659610     4.44644098
C     -2.00308846     1.09009387     4.99527572
C     -3.15090453     0.79873593     4.01661327
C     -3.27517853     1.85263082     2.91303991
C     -4.45447872     1.61316206     1.96755409
C     -4.65138295     2.76252508     0.97670957
C     -5.77157072     2.52759390    -0.03886115
C     -7.16152071     2.41154724     0.57293228
C     -8.21044121     2.19485203    -0.48298673
O     -8.59838731     1.07593546    -0.74215291
O     -8.64967162     3.30470657    -1.12071301
H      0.23229265    -1.10994642     0.11501088
H     -1.95596775    -2.77696793     1.41175843
H     -1.89813035     0.01250948     0.87342534
H     -2.11491744    -1.21774809    -1.20331236
H     -4.32597201    -4.08690186     2.04024698
H     -6.33352853    -3.03547929     1.79213021
H     -8.28798564    -0.57334384     0.15038959
H     -6.67281912    -0.24648342    -1.37450443
H     -4.93858541    -0.45051112    -3.15298238
H     -3.28210235    -0.77920620    -2.70519387
H     -3.30084396     1.17845324    -1.47994746
H     -0.56330230    -2.40397498    -2.25333688
H     -0.53494884    -5.43845802    -1.86592498
H      0.52601760    -4.51307672    -2.93424924
H     -2.31222573    -4.46328618    -3.14502134
H      0.07636243    -4.16089386     0.17411996
H      2.19981714    -1.34285025    -0.39910581
H      1.53268500     0.56092502    -1.32470452
H     -0.05677529     0.26269981    -3.91027556
H      0.40964201     1.82407316    -3.25300719
H     -0.45079982     3.81943449    -2.56005942
H      1.46635622     5.33478867    -2.29489992
H      4.68765307     3.66420114     0.32169300
H      6.65166285     5.10928037     0.57564204
H      6.51012268     7.49541143     0.00579264
H      4.39381154     8.43763028    -0.81420156
H      2.42115764     7.00026118    -1.05848860
H      2.70057477     3.15604803     1.14784962
H      0.82911548     1.59578006     0.81277387
H      2.93897396     1.21324059    -3.27298673
H      3.25685019    -0.46235274    -4.92304897
H      4.16630632    -0.12012833    -1.62878725
H      5.53069673    -1.35314352    -3.10886461
H      3.07658324    -2.61429519    -3.02927542
H      3.58003273    -2.98990354     0.39757869
H      3.36997325    -1.43792959     2.02192838
H      3.84667509     0.89427887     2.94671773
H      2.88529331     0.89610833     1.46283170
H      5.66843068     1.05534332     1.31087018
H      5.42377623    -1.09742878     3.40970419
H      7.44264117    -0.90713285     2.19796551
H      5.06900029    -3.38044251     2.53293265
H      7.34191947    -3.96209799     2.21356674
H      6.57041552    -2.44131215     0.04083591
H      5.68989405    -4.54354270    -0.70441389
H      1.31651381    -2.16815128     4.14404915
H      1.83861974    -0.49054983     4.18043229
H     -0.19767658    -0.99698019     5.68058713
H     -1.09181425    -1.36711747     4.22653351
H      0.16147859     1.32755058     4.93548638
H     -0.55641625     0.99435034     3.38558776
H     -2.15941275     0.55158950     5.93847191
H     -2.03764287     2.15310190     5.26571985
H     -4.10265020     0.74474231     4.55963356
H     -3.01815441    -0.19187538     3.56716570
H     -2.34711730     1.90201068     2.33200037
H     -3.37671635     2.84344084     3.37130962
H     -4.30603510     0.67316566     1.42321397
H     -5.36791532     1.46621736     2.55395728
H     -3.70411478     2.93646497     0.45060111
H     -4.84849342     3.68851640     1.52890527
H     -5.55701398     1.61956411    -0.61013791
H     -5.78081850     3.33281526    -0.78448524
H     -7.40447240     3.31796950     1.13517091
H     -7.20258441     1.58492607     1.28738662
H     -9.30512979     3.04579283    -1.78282101

