%chk=t07_C8_saturated_conf01.chk
%nprocshared=8
%mem=16GB
#P B3LYP/6-31G(d) SCRF=(PCM,Solvent=Water) Pop=MK NoSymm

t07_C8_saturated conformer 1 (Boltzmann pop=0.542)

0 1
O     -1.17987961    -2.66804819    -0.17364532
C     -0.31813967    -1.54063783    -0.34296507
C      1.05651518    -1.99853470    -0.90974182
O      0.89242347    -2.30733705    -2.29716429
C      2.17143161    -0.92642900    -0.72232121
C      3.55627509    -1.42992297    -1.07929956
C      4.00723921    -1.30595305    -2.41143375
O      3.12805283    -0.98458879    -3.43684529
C      5.34720162    -1.52738430    -2.70723692
C      6.24832016    -1.91848967    -1.72767636
O      7.58875123    -2.13087096    -1.99878102
C      5.76901510    -2.10620772    -0.43169293
C      4.44345653    -1.88946436    -0.10437561
C      4.02028709    -2.07372875     1.32465068
O      4.23320399    -0.92216679     2.11932219
O      2.17637705    -0.34146866     0.59798526
C      0.93334108     0.23517251     0.98958395
C      1.07599119     0.87350265     2.36641560
O      1.55117476    -0.05841847     3.30208369
C     -0.17146334    -0.83236131     1.01787471
O     -1.40192007    -0.31276236     1.50520467
C     -2.03524785     0.58240183     0.60191103
O     -1.14383710     1.54657122     0.02189625
C     -1.78397685     2.36657592    -0.95471943
C     -0.78023184     3.20645085    -1.78535619
O      0.55351494     2.77806829    -1.64318741
C      1.14475901     3.34763767    -0.54555340
O      0.60563713     4.14175238     0.20280435
C      2.54235492     2.91630920    -0.28324438
C      3.22206018     2.14496519    -1.21221031
C      4.47711401     1.65897150    -0.93235915
C      5.09540578     1.93064837     0.28589284
C      6.41340352     1.34063018     0.60621204
C      6.69342825     0.86239412     1.88533207
C      7.90069192     0.26143156     2.16705678
C      8.85552378     0.12995635     1.18005499
C      8.60056952     0.60450889    -0.08999207
C      7.39306244     1.20396174    -0.37539624
C      4.42078280     2.73910620     1.19934086
C      3.16597066     3.22800095     0.91515521
C     -2.82687777     3.25156201    -0.22844981
O     -2.23248620     4.02475347     0.80428281
C     -3.91289468     2.35259594     0.39547742
O     -4.81229568     3.14706990     1.14002582
C     -3.26839166     1.25298848     1.28002697
O     -4.21885606     0.26549775     1.65624250
C     -4.94587617    -0.25325543     0.54314778
O     -4.28214624    -0.06236397    -0.71765445
C     -4.96232270    -0.58656404    -1.85799931
C     -4.09120383    -0.32077893    -3.09044897
O     -3.87638499     1.05316192    -3.28063830
C     -6.38060533     0.04096016    -1.98012918
O     -6.35107975     1.43269014    -2.24288697
C     -7.18116546    -0.19324435    -0.67724897
O     -8.42455227     0.47741703    -0.76173978
C     -6.37793139     0.34294788     0.52459696
O     -7.06902875     0.07212347     1.73146258
C     -1.97638515    -2.92112566    -1.25364246
O     -1.91324341    -2.33596447    -2.31398938
C     -2.99023082    -4.02657029    -1.10420344
C     -2.85437922    -4.86106571     0.17804301
C     -3.54176434    -4.26190005     1.41401398
C     -2.81899001    -3.06540833     2.03159236
C     -3.48258845    -2.56748118     3.31726984
C     -2.77185775    -1.36978029     3.95591503
C     -1.39958956    -1.70205428     4.52209415
H     -0.78895946    -0.85805343    -1.06038297
H      1.35575859    -2.92536238    -0.40331790
H     -0.06955566    -2.39720884    -2.46458036
H      1.93302480    -0.09744560    -1.40045639
H      2.24690326    -1.34472345    -3.19215387
H      5.67306388    -1.40237415    -3.72208623
H      7.76304267    -2.06069181    -2.95462860
H      6.46430029    -2.41033424     0.32931326
H      4.56649001    -2.90275390     1.78834446
H      2.95587923    -2.33067429     1.37525954
H      4.11895167    -0.12688799     1.54619265
H      0.68196726     0.98608031     0.23087782
H      1.76762907     1.72129776     2.33765412
H      0.10645417     1.24150977     2.72013559
H      2.41369152    -0.41346750     2.98305211
H      0.13147828    -1.59362967     1.74879201
H     -2.40597395    -0.04585115    -0.21709287
H     -2.30641753     1.65601397    -1.61663244
H     -1.02351951     3.17085824    -2.85512009
H     -0.81781471     4.26269205    -1.49420748
H      2.74198550     1.91545484    -2.14891788
H      4.97666638     1.02553411    -1.64472896
H      5.94351039     0.94072668     2.65391398
H      8.09582263    -0.11397152     3.15855591
H      9.79806836    -0.34452952     1.40006831
H      9.34561089     0.49980859    -0.86192789
H      7.19894088     1.57692142    -1.36651473
H      4.89408138     2.98375826     2.13503088
H      2.64470830     3.85115654     1.62257314
H     -3.28291725     3.96105426    -0.93633914
H     -1.25989543     4.08447421     0.64979351
H     -4.49708787     1.87739055    -0.40204138
H     -4.29379830     3.78322922     1.66922572
H     -2.92558153     1.71585572     2.21328586
H     -5.02624725    -1.33639408     0.70352384
H     -5.05974977    -1.66952183    -1.69447215
H     -4.53817662    -0.74332991    -3.99811772
H     -3.09884192    -0.76909650    -2.96032443
H     -4.71791552     1.50112098    -3.05927073
H     -6.91000483    -0.42630571    -2.82591153
H     -7.24689790     1.79421407    -2.10245942
H     -7.37473885    -1.26673669    -0.53268524
H     -8.87029537     0.45292736     0.10278825
H     -6.31700533     1.43577896     0.43151774
H     -6.54607526     0.39111545     2.48826181
H     -3.99425394    -3.59933167    -1.16306969
H     -2.89373483    -4.66915588    -1.98626312
H     -1.79121135    -5.02213238     0.38997977
H     -3.26766122    -5.86269309    -0.00342801
H     -4.56925273    -3.97845254     1.15916184
H     -3.64519457    -5.03521423     2.18568280
H     -2.75973307    -2.24629453     1.30520277
H     -1.77729122    -3.33864269     2.23100810
H     -4.52527066    -2.30818905     3.09611415
H     -3.53702036    -3.38747644     4.04256431
H     -3.40035692    -0.94572513     4.75017984
H     -2.68217296    -0.57458612     3.20589208
H     -1.46587863    -2.46941355     5.29493847
H     -0.91761802    -0.82759434     4.96469682
H     -0.72775798    -2.07838309     3.75133996

