%chk=t04_C12_omega_CONH2_conf01.chk
%nprocshared=8
%mem=16GB
#P B3LYP/6-31G(d) SCRF=(PCM,Solvent=Water) Pop=MK NoSymm

t04_C12_omega_CONH2 conformer 1 (Boltzmann pop=0.089)

0 1
O     -0.86627381    -2.60612079     1.09783985
C      0.03767575    -1.60914972     0.62879422
C      1.51371188    -1.94386627     0.90922402
O      1.84007733    -3.26104907     0.47984105
C      2.37076452    -0.83809030     0.22767541
C      3.82602350    -1.20906132     0.11468176
C      4.66690128    -1.04451354     1.23292051
O      4.21268843    -0.41723899     2.37354585
C      5.97779336    -1.49681129     1.17597338
C      6.49424049    -2.07861671     0.02864322
O      7.81405260    -2.49423204     0.01204076
C      5.65340609    -2.21105398    -1.07597884
C      4.33179952    -1.79825480    -1.04600438
C      3.52163826    -1.95055483    -2.31029003
O      2.15593666    -2.28484946    -2.13684404
O      2.08803838     0.43738203     0.85205994
C      0.73232174     0.85028794     0.60592282
C      0.44847123     2.22196497     1.20862959
O      0.44138962     2.19560891     2.61082262
C     -0.28185674    -0.18865306     1.14606445
O     -1.63926008     0.17173129     0.91807264
C     -1.93819122     0.38647027    -0.45361289
O     -1.29703432     1.53532156    -1.01694850
C     -1.47414181     1.62427870    -2.43407367
C     -0.60963095     2.75533034    -2.98678124
O      0.76469864     2.48823704    -2.77877407
C      1.31336983     3.31786910    -1.83554018
O      0.74062318     4.26359794    -1.32795245
C      2.69724410     2.98434062    -1.41162307
C      3.32255805     3.71514318    -0.41298445
C      4.56461823     3.34708685     0.04999826
C      5.22395774     2.24054600    -0.48174576
C      6.52942887     1.80131623     0.05635089
C      7.55201179     1.38327588    -0.79258096
C      8.75646447     0.94865885    -0.28338768
C      8.96246099     0.91970290     1.08073992
C      7.96154131     1.33139983     1.93662255
C      6.75653780     1.76794264     1.43089017
C      4.60499553     1.53561227    -1.51173641
C      3.35806592     1.89881740    -1.96439733
C     -2.98020322     1.81638207    -2.75918089
O     -3.41941044     3.07615461    -2.26339541
C     -3.78772936     0.61916624    -2.19050693
O     -5.17642440     0.75288098    -2.42380693
C     -3.47204229     0.42249237    -0.69051192
O     -4.11709401    -0.73774722    -0.18948868
C     -3.40813320    -1.92540183    -0.50846883
O     -2.77958922    -1.93538609    -1.80101650
C     -1.95414657    -3.08414251    -2.02953173
C     -1.26134281    -2.93809920    -3.38480967
O     -0.44822353    -1.78591399    -3.45173988
C     -2.78779864    -4.39218205    -1.93799550
O     -3.71674293    -4.50132496    -2.99808391
C     -3.53769791    -4.46305033    -0.58622817
O     -4.41904915    -5.57014183    -0.59588694
C     -4.32874603    -3.15939392    -0.36025609
O     -4.98269297    -3.17677702     0.89633342
C     -0.89797742    -2.70557416     2.46246001
O     -0.14598861    -2.13824034     3.22489974
C     -1.96702898    -3.61786493     3.00750120
C     -2.66457330    -3.07916740     4.25758939
C     -3.52240529    -1.83175271     4.01074899
C     -2.69231342    -0.58806500     3.70747477
C     -3.50154214     0.69819543     3.54158962
C     -2.59622717     1.92009144     3.37149884
C     -3.34856095     3.24366703     3.20976427
C     -4.01848107     3.40959254     1.84560576
C     -4.79675125     4.72030148     1.72753338
C     -5.40712130     4.94033323     0.34449194
C     -6.32958597     3.82232456    -0.06302625
N     -7.62272562     3.86966677     0.36634184
O     -5.88846820     2.91808485    -0.74446755
H     -0.07403340    -1.60338331    -0.46197205
H      1.69428544    -1.89344614     1.99275322
H      1.28636926    -3.90932226     0.94806987
H      1.99717895    -0.71323710    -0.79560635
H      3.34856999    -0.01799929     2.14301079
H      6.61138250    -1.37744480     2.03412269
H      8.02179454    -2.95761310    -0.81864604
H      6.04564692    -2.64557875    -1.97697771
H      3.96148704    -2.73125494    -2.94267495
H      3.56191749    -1.02548077    -2.89525422
H      2.05827026    -2.77002711    -1.28526873
H      0.62593007     0.91108167    -0.48487893
H     -0.53957547     2.56899228     0.88682815
H      1.17621423     2.96485890     0.86734487
H      1.31332081     1.91853453     2.94852408
H     -0.16216673    -0.20155720     2.23837209
H     -1.54310729    -0.47122452    -1.00822607
H     -1.11937520     0.67014215    -2.85398324
H     -0.87549503     3.69033323    -2.47854321
H     -0.77049962     2.89380545    -4.06174414
H      2.81229285     4.56805498     0.00242720
H      5.03843061     3.91422659     0.83308311
H      7.39394293     1.41014677    -1.85727946
H      9.53963309     0.62963698    -0.95187568
H      9.90233395     0.57124102     1.47720446
H      8.11945444     1.30454979     3.00262381
H      5.96469920     2.05932547     2.10003191
H      5.10196673     0.67610889    -1.92717976
H      2.86771387     1.33674168    -2.74100791
H     -3.12238516     1.85932616    -3.85075436
H     -4.27713046     3.00089633    -1.77767687
H     -3.50190191    -0.30131621    -2.71942855
H     -5.53430158     1.45661604    -1.83712964
H     -3.88949896     1.26845463    -0.13195012
H     -2.60745259    -1.98303637     0.24239265
H     -1.19516199    -3.08990632    -1.23636384
H     -2.03202392    -2.83070469    -4.15582083
H     -0.67605861    -3.83027845    -3.63882016
H      0.41900874    -1.94405849    -3.01325795
H     -2.11077186    -5.25751555    -2.02553448
H     -4.35001099    -5.21675023    -2.79045546
H     -2.81904797    -4.60121968     0.23333679
H     -5.00908329    -5.53094337     0.17709129
H     -5.10172750    -3.09965999    -1.13967162
H     -5.49592938    -2.35364996     1.00020169
H     -1.51277851    -4.59244228     3.21239020
H     -2.71219421    -3.78594930     2.22611160
H     -1.90672612    -2.85302401     5.01639196
H     -3.28961919    -3.87033703     4.69253401
H     -4.21689556    -2.02182894     3.18526920
H     -4.15503187    -1.63180479     4.88444426
H     -1.94381080    -0.45061176     4.49674278
H     -2.11602987    -0.76157655     2.79488929
H     -4.15513206     0.84078628     4.40957244
H     -4.17342101     0.60107970     2.68162843
H     -1.94164205     1.76648469     2.50709625
H     -1.91707732     1.97940361     4.23149110
H     -4.09963587     3.33495525     4.00271608
H     -2.66063123     4.08421159     3.36704622
H     -4.69387000     2.56903900     1.65318729
H     -3.26160662     3.35784390     1.05414527
H     -4.13721471     5.55875389     1.98341025
H     -5.58976663     4.73471309     2.48374058
H     -4.61028294     5.01767781    -0.40194992
H     -5.94929166     5.89013163     0.30314248
H     -7.99326570     4.62498028     0.90543565
H     -8.26686460     3.15837867     0.10955890

