%chk=t04_C12_omega_CONH2_conf05.chk
%nprocshared=8
%mem=16GB
#P B3LYP/6-31G(d) SCRF=(PCM,Solvent=Water) Pop=MK NoSymm

t04_C12_omega_CONH2 conformer 5 (Boltzmann pop=0.053)

0 1
O     -0.80987014    -2.59027439     1.03078274
C      0.08739793    -1.57010023     0.59904314
C      1.56177537    -1.89524423     0.90558870
O      1.90764450    -3.18232893     0.41466884
C      2.44515434    -0.76136685     0.31072603
C      3.91746950    -1.09474118     0.35882159
C      4.60491042    -0.98487754     1.58366168
O      4.00202442    -0.41239892     2.68344529
C      5.91102612    -1.44557220     1.68052038
C      6.57223373    -1.98874646     0.58930713
O      7.87256374    -2.43842283     0.73747399
C      5.88965894    -2.05598906    -0.62484806
C      4.58520216    -1.61290274    -0.75195546
C      3.90716312    -1.75981733    -2.08607431
O      3.06634589    -2.89267951    -2.17147136
O      2.09514179     0.50318784     0.92780929
C      0.74151540     0.89027633     0.63637162
C      0.40763303     2.25316842     1.23251723
O      0.40271299     2.23453520     2.63459288
C     -0.26148839    -0.17030521     1.14788293
O     -1.62433205     0.17642982     0.92992158
C     -1.93297865     0.41308418    -0.43592511
O     -1.29054168     1.56903086    -0.98414770
C     -1.49299411     1.70773198    -2.39432227
C     -0.63703772     2.85785332    -2.92054931
O      0.74097519     2.57340347    -2.76633830
C      1.32016729     3.34408128    -1.79211307
O      0.76500624     4.25559880    -1.20824383
C      2.71799742     2.98892916    -1.43741711
C      3.38465519     1.98643318    -2.12395008
C      4.65243653     1.60684904    -1.74832116
C      5.28671130     2.20962675    -0.66391275
C      6.62391905     1.76034188    -0.22166594
C      6.91771558     1.62756025     1.13407272
C      8.15795162     1.19298585     1.54796931
C      9.12841765     0.88266011     0.61767934
C      8.85647239     1.01109129    -0.72905226
C      7.61679931     1.44422280    -1.14647260
C      4.61909405     3.23351303     0.00500824
C      3.35721535     3.62056004    -0.38163117
C     -3.00387264     1.91043033    -2.68789477
O     -3.43605364     3.14663020    -2.13082251
C     -3.79622296     0.68915460    -2.15123062
O     -5.18751831     0.81226426    -2.37524834
C     -3.46856309     0.46226264    -0.65928397
O     -4.12282382    -0.69892992    -0.17498058
C     -3.43837077    -1.89540974    -0.51843242
O     -2.74873430    -1.88453577    -1.78063432
C     -1.95698601    -3.05880323    -1.99410506
C     -1.13952688    -2.90008274    -3.27866129
O     -1.97341544    -2.65643216    -4.38046221
C     -2.86002725    -4.32438320    -2.02346688
O     -3.75470139    -4.33230417    -3.11980983
C     -3.67057521    -4.42487845    -0.70904054
O     -4.59842252    -5.48856026    -0.80729949
C     -4.41240463    -3.09659514    -0.46007734
O     -5.12224344    -3.13469393     0.76498247
C     -0.85438393    -2.73196709     2.39133859
O     -0.13104152    -2.16480936     3.18094625
C     -1.90122093    -3.69139515     2.89574431
C     -2.66811687    -3.18870583     4.11984263
C     -3.53751136    -1.95238376     3.85568298
C     -2.71772741    -0.68094516     3.65612919
C     -3.54128333     0.59568553     3.48695341
C     -2.65001944     1.83723050     3.40703876
C     -3.41540656     3.15722775     3.28444674
C     -4.06896370     3.36954305     1.91901280
C     -4.85032546     4.68128108     1.83917769
C     -5.45744528     4.94295401     0.46203872
C     -6.38208996     3.83949768     0.02125949
N     -7.67789178     3.88295385     0.44291900
O     -5.94081364     2.94907653    -0.67800244
H     -0.00391656    -1.54278399    -0.49398356
H      1.70916590    -1.90425466     1.99536555
H      1.33102765    -3.85404235     0.81883900
H      2.15671293    -0.64757259    -0.73978719
H      3.17458296     0.00118949     2.36115671
H      6.42267310    -1.37690227     2.62168325
H      8.17524232    -2.89802209    -0.06594475
H      6.38736083    -2.47302278    -1.48081448
H      4.65201006    -1.85553498    -2.88446169
H      3.32080456    -0.86821540    -2.33223871
H      2.65531078    -3.05714831    -1.29059186
H      0.66723129     0.94862425    -0.45729836
H     -0.59402220     2.55752963     0.90999471
H      1.10242584     3.02396564     0.88494953
H      1.28623327     1.99721929     2.97285202
H     -0.14262152    -0.20678987     2.23994046
H     -1.54683825    -0.43795290    -1.00528504
H     -1.14729334     0.77037749    -2.85538767
H     -0.88109935     3.77074333    -2.36357878
H     -0.82818380     3.04543535    -3.98302099
H      2.88718593     1.50723310    -2.95042269
H      5.15990232     0.81958805    -2.27872807
H      6.15180362     1.84152732     1.86019673
H      8.36786865     1.08770922     2.60010535
H     10.09571201     0.53497256     0.94258888
H      9.61539616     0.77165096    -1.45624879
H      7.40952553     1.55379786    -2.19743087
H      5.10435611     3.72556079     0.83065113
H      2.84582520     4.41597633     0.13412479
H     -3.16582071     1.99683930    -3.77406518
H     -4.31058446     3.05927903    -1.67831658
H     -3.50137359    -0.21513166    -2.70370435
H     -5.55187773     1.50384216    -1.77784473
H     -3.87426467     1.30171400    -0.08298521
H     -2.67150073    -2.01028953     0.26124979
H     -1.27919588    -3.13781699    -1.13199973
H     -0.53978714    -3.79576002    -3.48099879
H     -0.44828236    -2.05313554    -3.20093648
H     -2.79048681    -3.17678857    -4.24329896
H     -2.22523158    -5.21863819    -2.13278062
H     -4.43011035    -5.02058437    -2.96810012
H     -2.99613356    -4.63337941     0.13256795
H     -5.21093331    -5.46495193    -0.05161548
H     -5.14802283    -2.97262073    -1.26766495
H     -5.60870119    -2.29710141     0.87930265
H     -1.41245109    -4.64559154     3.11645759
H     -2.60738973    -3.89129810     2.08664143
H     -1.95258113    -2.96239015     4.91862702
H     -3.29695786    -4.00005587     4.50985467
H     -4.16759950    -2.12807103     2.97706217
H     -4.23407065    -1.79746757     4.68895450
H     -2.02550592    -0.56029779     4.49779315
H     -2.07908241    -0.80639102     2.77811139
H     -4.24401406     0.69783116     4.32154117
H     -4.16235985     0.51568869     2.58793267
H     -1.96296510     1.73428747     2.56035383
H     -2.00290374     1.86409486     4.29283892
H     -4.17851030     3.20988112     4.06943008
H     -2.73907463     3.99826754     3.48396581
H     -4.73968856     2.53463650     1.68928484
H     -3.30251805     3.34875165     1.13542870
H     -4.19381606     5.51296776     2.12340514
H     -5.64581089     4.66978973     2.59278423
H     -4.65901844     5.04048891    -0.28024552
H     -5.99750321     5.89471317     0.44765507
H     -8.04762313     4.62390868     1.00209647
H     -8.32221434     3.17860928     0.16860943

