%chk=t04_C12_omega_CONH2_conf03.chk
%nprocshared=8
%mem=16GB
#P B3LYP/6-31G(d) SCRF=(PCM,Solvent=Water) Pop=MK NoSymm

t04_C12_omega_CONH2 conformer 3 (Boltzmann pop=0.056)

0 1
O     -1.02909869    -2.57565157     1.27146779
C     -0.13863977    -1.53902299     0.86751214
C      1.34133624    -1.88228411     1.10759804
O      1.67075627    -3.16445942     0.59398417
C      2.16302373    -0.72738853     0.47316717
C      3.60231248    -1.07568494     0.20003893
C      4.54054948    -1.03676254     1.24806246
O      4.19434808    -0.53085346     2.48257791
C      5.83267609    -1.49090485     1.02232041
C      6.22904244    -1.96268148    -0.22108815
O      7.53800588    -2.37314424    -0.40739936
C      5.29092790    -1.97248346    -1.25290470
C      3.99593547    -1.52764267    -1.05992293
C      3.03758352    -1.56359295    -2.22067348
O      2.08562068    -2.60837914    -2.15193230
O      1.92385180     0.47767158     1.23876405
C      0.56992157     0.92845317     1.05948586
C      0.29726753     2.22136022     1.82368972
O      0.23189119     2.01919457     3.21216831
C     -0.47187371    -0.15009722     1.46425313
O     -1.80761840     0.23841710     1.15578168
C     -1.96715911     0.57835888    -0.21527140
O     -1.31330674     1.79066804    -0.60200904
C     -1.23654739     1.91940730    -2.02315409
C     -0.36395708     3.11778677    -2.38851180
O      0.89546587     3.09867291    -1.75221484
C      1.72607241     2.14716673    -2.28403053
O      1.40719561     1.35780153    -3.15354914
C      3.10761536     2.12521692    -1.73226154
C      3.37515969     2.69307207    -0.49701562
C      4.64736640     2.67546145     0.02464409
C      5.69931465     2.09753520    -0.68266019
C      7.07266911     2.10563468    -0.13155125
C      7.86793252     0.96327819    -0.16698111
C      9.14234835     0.97071188     0.35556048
C      9.65132880     2.12218799     0.91993243
C      8.87994532     3.26580178     0.96216255
C      7.60321025     3.25900167     0.44310886
C      5.42599092     1.53538107    -1.92854041
C      4.15013420     1.55229986    -2.44509722
C     -2.66862891     2.03769112    -2.61794211
O     -3.24899968     3.28368275    -2.24580675
C     -3.53266360     0.81654173    -2.19581381
O     -4.87487110     0.95004722    -2.62117514
C     -3.44718372     0.59473890    -0.66676555
O     -4.14746726    -0.57477109    -0.28096859
C     -3.42014986    -1.76834308    -0.53777858
O     -2.59812640    -1.76176905    -1.71998534
C     -1.81821322    -2.95435389    -1.88451504
C     -0.90533427    -2.80469178    -3.10533239
O     -1.65321180    -2.52569575    -4.25849420
C     -2.73880402    -4.20223584    -1.99808889
O     -3.54293342    -4.18796105    -3.16271376
C     -3.65435720    -4.29521040    -0.75544234
O     -4.57796933    -5.35298052    -0.92659139
C     -4.40413968    -2.96242275    -0.57666481
O     -5.23006870    -2.99831494     0.57402176
C     -1.03448863    -2.79367546     2.62152285
O     -0.31869152    -2.23977200     3.42697974
C     -2.03001064    -3.82313982     3.08896407
C     -2.94395354    -3.34025187     4.21585189
C     -3.82373103    -2.13740269     3.84728439
C     -3.03715827    -0.83040554     3.79284725
C     -3.87730665     0.42405145     3.55372455
C     -3.03135964     1.69546794     3.65949801
C     -3.82044160     2.99532169     3.48393717
C     -4.27781430     3.25259701     2.04829573
C     -5.05428075     4.56226525     1.90611745
C     -5.45941594     4.87423445     0.46667265
C     -6.31389125     3.79194202    -0.13745070
N     -7.64386290     3.78859898     0.16222294
O     -5.79043662     2.95942831    -0.85134153
H     -0.25547815    -1.47350282    -0.22000478
H      1.54051710    -1.88981944     2.18909268
H      1.15068546    -3.84833446     1.05100812
H      1.70269784    -0.51785855    -0.49952261
H      3.32291170    -0.09808822     2.37066333
H      6.54477446    -1.46353038     1.82508725
H      7.65763138    -2.77220741    -1.28747530
H      5.58291147    -2.33118132    -2.22243363
H      3.58233585    -1.69090790    -3.16314185
H      2.49952005    -0.61352440    -2.31545548
H      1.94381194    -2.85692473    -1.20807912
H      0.46975995     1.12639636    -0.01482497
H     -0.67181509     2.63063890     1.51729854
H      1.05260293     2.98277771     1.60276768
H      1.08900840     1.70474974     3.55310918
H     -0.42547832    -0.23705123     2.55781903
H     -1.48295679    -0.21132839    -0.79773049
H     -0.75101963     1.00340979    -2.39230979
H     -0.86856466     4.03413162    -2.06202543
H     -0.20772365     3.18768404    -3.47111105
H      2.56865810     3.15722947     0.04256666
H      4.83939739     3.10394384     0.99359630
H      7.46652250     0.05732201    -0.58430996
H      9.73886599     0.07302742     0.32772177
H     10.64878227     2.12790189     1.32850176
H      9.27715660     4.16643857     1.40117801
H      7.00581743     4.15497307     0.46648570
H      6.23183126     1.09892456    -2.49369949
H      3.94541020     1.13211436    -3.41542401
H     -2.60389133     2.06411612    -3.71742038
H     -4.11518055     3.16034947    -1.78667223
H     -3.16411556    -0.08979417    -2.69724873
H     -5.32135099     1.60423002    -2.03865085
H     -3.95278907     1.42901236    -0.16651196
H     -2.74486969    -1.87889305     0.32273149
H     -1.20857173    -3.06224926    -0.97668796
H     -0.31624794    -3.71396200    -3.27670131
H     -0.19521510    -1.98058025    -2.97252798
H     -2.48461177    -3.03706577    -4.19214392
H     -2.11334203    -5.10747829    -2.06161792
H     -4.23510026    -4.87012194    -3.07385691
H     -3.05383726    -4.50031506     0.14128518
H     -5.25717617    -5.31421254    -0.23074894
H     -5.05711259    -2.83044854    -1.45131292
H     -5.71569228    -2.15584370     0.64775198
H     -1.47964459    -4.71645888     3.40091333
H     -2.63840387    -4.12615895     2.23346653
H     -2.32975949    -3.08097631     5.08588121
H     -3.57963608    -4.17299862     4.54489608
H     -4.31378468    -2.31961144     2.88441860
H     -4.63781995    -2.02953992     4.57476937
H     -2.46758249    -0.71317436     4.72243346
H     -2.28431497    -0.90417817     3.00462316
H     -4.69899166     0.46509707     4.27758997
H     -4.35396834     0.36576984     2.56880227
H     -2.22546919     1.65500234     2.91873340
H     -2.52090746     1.69944919     4.63101649
H     -4.68990042     2.98761334     4.15124468
H     -3.21154043     3.84613913     3.81528991
H     -4.89889536     2.42148981     1.69730316
H     -3.40818504     3.26525820     1.38084904
H     -4.45440337     5.38577094     2.31288913
H     -5.94983962     4.51802451     2.53627477
H     -4.56398832     4.99243149    -0.15165980
H     -5.99197133     5.82872979     0.40865583
H     -8.07791166     4.48730435     0.72960257
H     -8.24748506     3.09732419    -0.21792456

