%chk=t04_C12_omega_CONH2_conf02.chk
%nprocshared=8
%mem=16GB
#P B3LYP/6-31G(d) SCRF=(PCM,Solvent=Water) Pop=MK NoSymm

t04_C12_omega_CONH2 conformer 2 (Boltzmann pop=0.086)

0 1
O     -0.51168006    -2.24943859     0.94880877
C      0.26329756    -1.05973187     1.06912206
C      1.64950309    -1.30939189     1.69995939
O      2.36745822    -2.27510529     0.94273336
C      2.44133932     0.02864659     1.80900798
C      3.78631060    -0.19330115     2.46018745
C      3.82804244    -0.46138685     3.84292091
O      2.68699469    -0.37561769     4.61372017
C      5.03417795    -0.80424445     4.43915728
C      6.21150635    -0.87110128     3.70895452
O      7.38808738    -1.21556056     4.34974068
C      6.15538958    -0.58199537     2.34550393
C      4.96836157    -0.23916619     1.72324440
C      4.97896904    -0.00265136     0.24256459
O      4.60159860    -1.14357430    -0.50313577
O      1.66871210     1.05345786     2.48355264
C      0.42595036     1.33806688     1.82594532
C     -0.29731616     2.51128096     2.47584151
O     -0.64563651     2.24500536     3.80927356
C     -0.45456433     0.07249124     1.83303004
O     -1.79146035     0.30015224     1.41691140
C     -1.89448743     0.66731386     0.05387142
O     -1.26014353     1.91034886    -0.27698258
C     -1.33315223     2.18360244    -1.67858001
C     -0.42416531     3.34208095    -2.08346159
O      0.93700162     2.98405230    -2.02256291
C      1.23521476     2.04775345    -2.97877130
O      0.43038226     1.58509564    -3.76729359
C      2.64923163     1.59102171    -3.01085369
C      2.98013669     0.36617057    -3.56989175
C      4.28731213    -0.05938870    -3.59559944
C      5.30543190     0.73755746    -3.07617068
C      6.70993685     0.26620848    -3.08994422
C      7.70239815     0.98707863    -3.74974602
C      9.00348930     0.53319495    -3.76942331
C      9.33648974    -0.64450972    -3.13074060
C      8.36597622    -1.36787217    -2.46745459
C      7.06481086    -0.91676292    -2.44543259
C      4.96797495     1.97301335    -2.52690755
C      3.65671102     2.38814129    -2.48791330
C     -2.81040911     2.40085205    -2.08943120
O     -3.35833245     3.48397452    -1.34736382
C     -3.56324691     1.06921412    -1.86246623
O     -4.92237379     1.14292373    -2.24589944
C     -3.38346666     0.61743250    -0.39708745
O     -3.93189278    -0.67621275    -0.21599709
C     -3.12377874    -1.71400429    -0.77279392
O     -2.17052727    -1.29882365    -1.76874622
C     -1.28606746    -2.35288931    -2.15238555
C     -0.13811018    -1.80601369    -3.00667463
O     -0.59925666    -1.08946917    -4.13974289
C     -2.10093152    -3.45185803    -2.87989355
O     -2.70587113    -2.94102263    -4.05237603
C     -3.19527947    -4.00900154    -1.93880643
O     -4.04493956    -4.87747338    -2.66217872
C     -4.02324604    -2.85945365    -1.31567500
O     -4.85703962    -3.37552381    -0.28929983
C     -0.86676465    -2.79553387     2.15282281
O     -0.49641195    -2.40627434     3.23889775
C     -1.78226123    -3.98957194     2.05890662
C     -2.96870171    -3.95254719     3.02504260
C     -3.92458256    -2.76598825     2.83326839
C     -3.33764267    -1.45110976     3.33867404
C     -4.28475011    -0.25363238     3.27176471
C     -3.63734553     1.00811707     3.84897285
C     -4.55250824     2.23434200     3.88278266
C     -4.86611488     2.81006914     2.50247140
C     -5.73583160     4.06580608     2.56897736
C     -6.01975699     4.67481787     1.19719294
C     -6.72964744     3.71130450     0.28462434
N     -8.09301615     3.69776132     0.30567616
O     -6.06733157     2.97391061    -0.41801975
H      0.44412409    -0.72565209     0.03880024
H      1.51638090    -1.71534320     2.71287961
H      1.84037389    -3.08939107     0.86460491
H      2.59157205     0.40203526     0.79054722
H      2.01797083     0.09720240     4.07587566
H      5.05708829    -1.01389160     5.49177410
H      8.13515094    -1.22458164     3.72624656
H      7.05456432    -0.64071694     1.76043795
H      5.98433884     0.28335266    -0.08594101
H      4.33012937     0.83707189    -0.03004431
H      3.84587218    -1.58924521    -0.05368087
H      0.66959778     1.59062996     0.78459814
H     -1.22947421     2.71019066     1.93512880
H      0.31031681     3.42336908     2.43361043
H      0.15759563     2.12926234     4.35042083
H     -0.53410505    -0.24189254     2.88378961
H     -1.35241218    -0.10123889    -0.50473602
H     -0.95937299     1.27301262    -2.16883855
H     -0.58572105     4.19442753    -1.41421160
H     -0.63614707     3.67123138    -3.10753520
H      2.19778767    -0.24557402    -3.98517356
H      4.53849122    -1.01635410    -4.02078403
H      7.43686899     1.90069495    -4.25415475
H      9.76230038     1.09797920    -4.28661902
H     10.35475929    -0.99779812    -3.14773063
H      8.62704494    -2.28338424    -1.96178542
H      6.30803218    -1.45700574    -1.90175316
H      5.74696262     2.59375326    -2.11784689
H      3.39306974     3.33728818    -2.05202703
H     -2.87369600     2.68626737    -3.15115337
H     -4.29445070     3.30924587    -1.08159636
H     -3.13667292     0.28906895    -2.50877423
H     -5.40741447     1.73251178    -1.62555971
H     -3.96029595     1.29047536     0.24671456
H     -2.53483696    -2.09248546     0.07371685
H     -0.88002783    -2.77290475    -1.21943900
H      0.49605255    -2.62577530    -3.36386295
H      0.49876491    -1.15495252    -2.39431267
H     -0.30049348    -0.14887958    -4.09635086
H     -1.43316118    -4.26846314    -3.19808538
H     -2.12442469    -2.22633470    -4.38078676
H     -2.74764201    -4.60205897    -1.12953807
H     -4.19575224    -4.49563977    -3.54944367
H     -4.67223126    -2.42284599    -2.08735739
H     -5.40141684    -4.10440158    -0.63628787
H     -1.18467058    -4.89085106     2.22908908
H     -2.14855195    -4.06593949     1.03236287
H     -2.58671766    -3.93718347     4.05235470
H     -3.53078683    -4.89175658     2.93736480
H     -4.19947417    -2.67156297     1.77674300
H     -4.86794752    -2.95553308     3.36013328
H     -2.98798601    -1.58194848     4.36956630
H     -2.43781896    -1.22124392     2.76245385
H     -5.20893269    -0.47924576     3.81545276
H     -4.58941714    -0.08615375     2.23278111
H     -2.73336236     1.24541571     3.27671254
H     -3.27911901     0.78688267     4.86221085
H     -5.48685005     1.98075275     4.39655404
H     -4.09173947     3.02095322     4.49398502
H     -5.36671415     2.05560663     1.88607021
H     -3.93141545     3.03891475     1.97761409
H     -5.25386704     4.80798903     3.21728133
H     -6.68340663     3.82077151     3.06229648
H     -5.07972334     4.97240820     0.72203336
H     -6.61258559     5.58993173     1.29051225
H     -8.63671373     4.30352760     0.88480518
H     -8.60342624     3.07428535    -0.27526477

