%chk=t04_C12_omega_CONH2_conf04.chk
%nprocshared=8
%mem=16GB
#P B3LYP/6-31G(d) SCRF=(PCM,Solvent=Water) Pop=MK NoSymm

t04_C12_omega_CONH2 conformer 4 (Boltzmann pop=0.054)

0 1
O     -0.83391758    -2.57909163     1.14293587
C      0.06457903    -1.57677693     0.67518206
C      1.54133297    -1.90712201     0.95455895
O      1.86876240    -3.22629124     0.53292362
C      2.39403195    -0.80346070     0.26454218
C      3.84876872    -1.17527287     0.14638835
C      4.69430316    -1.00709883     1.26062770
O      4.24682940    -0.37064146     2.39873570
C      6.00296476    -1.46553938     1.20244557
C      6.51315668    -2.05669570     0.05717054
O      7.83080950    -2.47906195     0.03945859
C      5.66838127    -2.19155401    -1.04413903
C      4.34862006    -1.77274832    -1.01283672
C      3.53467000    -1.92924028    -2.27462282
O      2.17171314    -2.27286460    -2.09885565
O      2.11162237     0.47347155     0.88727700
C      0.75382544     0.88366333     0.64677073
C      0.46716558     2.25497861     1.24931810
O      0.46255619     2.23043624     2.65160010
C     -0.25850607    -0.15607511     1.18970614
O     -1.61569023     0.20296848     0.95652475
C     -1.90858517     0.41538833    -0.41744851
O     -1.27059172     1.56681576    -0.97953959
C     -1.44129575     1.65622533    -2.39805736
C     -0.58042285     2.79184476    -2.94673554
O      0.79461286     2.52100419    -2.74868015
C      1.34782612     3.33732655    -1.79683431
O      0.77819616     4.27636122    -1.27362520
C      2.73336365     2.99711686    -1.38462903
C      3.36836274     3.72163570    -0.38765988
C      4.61458188     3.35037128     0.06111069
C      5.26820575     2.24673735    -0.48348608
C      6.57972427     1.80595680     0.03823988
C      7.59289116     1.39154126    -0.82365211
C      8.80354121     0.95664329    -0.32964961
C      9.02526531     0.92402959     1.03193382
C      8.03385178     1.33213564     1.90049241
C      6.82262484     1.76884431     1.40999637
C      4.63842497     1.54713619    -1.51062963
C      3.38719593     1.91331822    -1.94900287
C     -2.94629542     1.83553046    -2.73334867
O     -3.40149768     3.08869164    -2.23517192
C     -3.74291427     0.62720408    -2.17329113
O     -5.13111409     0.74222954    -2.41936989
C     -3.43936033     0.43955308    -0.67034017
O     -4.08488482    -0.72153311    -0.17481046
C     -3.37966771    -1.91717601    -0.48106611
O     -2.64670342    -1.92113678    -1.71989925
C     -1.84816553    -3.09809987    -1.89596940
C     -0.99117205    -2.95780693    -3.15733497
O     -1.79249099    -2.69294459    -4.27737661
C     -2.75110043    -4.36242806    -1.94047983
O     -3.61268440    -4.37773721    -3.06288100
C     -3.59882634    -4.44996037    -0.64898201
O     -4.52214557    -5.51588880    -0.76242332
C     -4.35038714    -3.12153298    -0.43579646
O     -5.09154090    -3.14968806     0.77107881
C     -0.85741137    -2.69368741     2.50595051
O     -0.12000207    -2.11377292     3.27291284
C     -1.89945623    -3.64137831     3.04173467
C     -2.67679465    -3.09724721     4.24099735
C     -3.54022562    -1.86807583     3.92829366
C     -2.71475738    -0.60398289     3.70563631
C     -3.53364884     0.66945024     3.49562058
C     -2.64015667     1.90799009     3.39503844
C     -3.40459278     3.22390814     3.23053857
C     -4.04506943     3.39898150     1.85365279
C     -4.83055433     4.70500461     1.73221114
C     -5.42650062     4.92692184     0.34322358
C     -6.34122499     3.80711604    -0.07698504
N     -7.63913737     3.84985882     0.33825661
O     -5.89023667     2.90517743    -0.75503215
H     -0.04644492    -1.57304701    -0.41590036
H      1.72392774    -1.84979875     2.03746795
H      1.31430626    -3.87222539     1.00385251
H      2.01600129    -0.68306833    -0.75776668
H      3.38279471     0.02917658     2.16888991
H      6.63972812    -1.34364383     2.05788659
H      8.03402172    -2.94821830    -0.78909244
H      6.05612627    -2.63324608    -1.94358992
H      3.97800015    -2.70636148    -2.90901039
H      3.56548482    -1.00390671    -2.85997517
H      2.07120263    -2.74115844    -1.23779178
H      0.64432838     0.94438442    -0.44369164
H     -0.52333220     2.59744317     0.92993092
H      1.19066657     3.00075387     0.90507877
H      1.33453123     1.95307593     2.98880173
H     -0.14052288    -0.16590542     2.28216157
H     -1.50532343    -0.44001609    -0.96763247
H     -1.07917150     0.70576213    -2.81827002
H     -0.84289981     3.72330121    -2.43036054
H     -0.74681477     2.93810869    -4.01983267
H      2.86283409     4.57279732     0.03698939
H      5.09649718     3.91320938     0.84234384
H      7.42271915     1.42174148    -1.88638521
H      9.57922380     0.64032267    -1.00807919
H      9.97001437     0.57550705     1.41658992
H      8.20411756     1.30234702     2.96450335
H      6.03797061     2.05675720     2.08910828
H      5.13109583     0.68995406    -1.93589265
H      2.88786962     1.35504347    -2.72287092
H     -3.08220571     1.88083240    -3.82561708
H     -4.26744111     3.00447783    -1.76577336
H     -3.43885931    -0.29117155    -2.69659944
H     -5.50343091     1.44277285    -1.83770810
H     -3.86817603     1.28492071    -0.11988552
H     -2.63917203    -2.01515808     0.32562667
H     -1.19812259    -3.17268574    -1.01295743
H     -0.41029361    -3.86886552    -3.34538275
H     -0.27618062    -2.13198096    -3.06539640
H     -2.61575561    -3.21104757    -4.17009666
H     -2.11478284    -5.25844383    -2.02329066
H     -4.29191971    -5.06536521    -2.92647931
H     -2.94949278    -4.64622266     0.21546646
H     -5.15962223    -5.48001361    -0.02818161
H     -5.06521607    -3.00877221    -1.26339681
H     -5.57718491    -2.30951546     0.86853658
H     -1.40483767    -4.58239185     3.30247114
H     -2.59888860    -3.87883524     2.23628426
H     -1.96858737    -2.84623516     5.03893684
H     -3.31095382    -3.89426249     4.65141324
H     -4.15768656    -2.06781152     3.04573826
H     -4.24872565    -1.68843532     4.74639403
H     -2.03175916    -0.46344934     4.55172211
H     -2.06679987    -0.75298535     2.83822722
H     -4.24565376     0.79320058     4.31937790
H     -4.14474914     0.56793982     2.59195797
H     -1.94368129     1.78415040     2.55887668
H     -2.00319444     1.95702245     4.28723971
H     -4.17552076     3.29625443     4.00624003
H     -2.73103806     4.07058541     3.41471676
H     -4.71053778     2.55597538     1.63893072
H     -3.27085244     3.36043259     1.07842858
H     -4.17993337     5.54671253     1.99990977
H     -5.63268295     4.71052407     2.47881363
H     -4.62193307     5.00919709    -0.39431620
H     -5.97143055     5.87500982     0.29892298
H     -8.01777328     4.60239839     0.87565680
H     -8.27785907     3.13641295     0.07411351

