%chk=t08_C12_omega_NH2_conf03.chk
%nprocshared=8
%mem=16GB
#P B3LYP/6-31G(d) SCRF=(PCM,Solvent=Water) Pop=MK NoSymm

t08_C12_omega_NH2 conformer 3 (Boltzmann pop=0.099)

0 1
O     -0.96044900    -2.08794083    -1.42018152
C     -0.17567768    -1.03351497    -0.87838154
C      1.30965520    -1.42194629    -0.76056697
O      1.79699171    -1.83494727    -2.03832225
C      2.11020818    -0.23646796    -0.15300091
C      3.57365899    -0.57542966    -0.05944407
C      4.39176997    -0.29002414    -1.17192227
O      3.85948326     0.39362876    -2.25256134
C      5.71841648    -0.70106371    -1.16834879
C      6.25352007    -1.38192378    -0.08353196
O      7.57045328    -1.80115004    -0.05443206
C      5.42961792    -1.64042012     1.01233982
C      4.10396705    -1.25857431     1.03182234
C      3.29751253    -1.56382071     2.25946633
O      3.70239663    -2.76661591     2.89847329
O      1.54109446     0.18199622     1.11364412
C      0.16291840     0.57887753     1.02137950
C     -0.35781631     1.11196447     2.35588153
O      0.30842990     2.27659280     2.77672764
C     -0.71794529    -0.57565867     0.48631706
O     -2.09907028    -0.24435013     0.42436377
C     -2.37737306     0.65312459    -0.63727935
O     -1.55436795     1.82575270    -0.62871244
C     -1.64190371     2.58120516    -1.83986211
C     -0.68689570     3.77378019    -1.76593060
O      0.67121475     3.38281368    -1.65527301
C      1.16016031     3.59830160    -0.39294377
O      0.50571080     4.03853888     0.53373858
C      2.59914052     3.27407079    -0.18326521
C      3.51471633     3.46010401    -1.20743861
C      4.85399504     3.22017081    -1.00010897
C      5.31853576     2.77802887     0.23767618
C      6.75772159     2.53059822     0.47047554
C      7.72742209     3.38121973    -0.05683034
C      9.06725625     3.14892189     0.16821528
C      9.46555104     2.06408040     0.92266723
C      8.51955678     1.21107379     1.45328003
C      7.17975891     1.44293013     1.23177513
C      4.38915943     2.57691360     1.25572034
C      3.05334191     2.82362254     1.04753343
C     -3.10295758     3.05384449    -2.08074611
O     -3.47869503     4.05918545    -1.15995436
C     -4.10974403     1.87774085    -2.00418992
O     -5.42609938     2.40440171    -2.03870470
C     -3.87999126     1.03269015    -0.72688934
O     -4.68413651    -0.14757630    -0.76284694
C     -5.80063065    -0.14159502     0.11637313
O     -6.76920151     0.89556817    -0.09710817
C     -7.98005924     0.67378091     0.64062824
C     -9.00443216     1.75628593     0.29221134
O     -8.51943312     3.04028954     0.58669942
C     -7.69660867     0.61509380     2.17124411
O     -7.26329757     1.85663526     2.69813941
C     -6.62367161    -0.45558688     2.48448525
O     -6.27070858    -0.39131719     3.85369448
C     -5.38646803    -0.18749479     1.60683091
O     -4.37761211    -1.14677811     1.85169518
C     -1.17889954    -1.92384848    -2.75979961
O     -0.63815449    -1.08327317    -3.44910123
C     -2.15969812    -2.88696747    -3.37657569
C     -3.57672179    -2.75002370    -2.81023302
C     -3.65632081    -2.85601180    -1.28444509
C     -3.03022001    -4.12810531    -0.71647728
C     -2.94891512    -4.13134186     0.81539189
C     -1.92140838    -5.13398766     1.35411137
C     -0.47750202    -4.68925650     1.09958245
C      0.56757727    -5.74255420     1.46957192
C      2.00552115    -5.28408597     1.20273340
C      2.31689523    -5.06986161    -0.27926684
C      3.72896091    -4.54196610    -0.52300500
N      3.90741606    -3.99201225    -1.85394439
H     -0.23499262    -0.18583852    -1.57334259
H      1.39938540    -2.28133885    -0.08452887
H      1.10675961    -1.58923809    -2.69389826
H      2.01343992     0.62286392    -0.83001897
H      4.47605925     0.37991737    -3.00856746
H      6.33809139    -0.47619552    -2.01661727
H      7.99380278    -1.66931397    -0.92212910
H      5.83687087    -2.17558646     1.85091884
H      3.38820249    -0.72429526     2.95977806
H      2.23696689    -1.65826584     2.00418027
H      3.37888910    -2.81885933     3.81716464
H      0.13724739     1.39014029     0.28439443
H     -0.22423399     0.35496345     3.13568306
H     -1.43217085     1.32555961     2.29020701
H      0.31129751     2.93383140     2.03969307
H     -0.64189461    -1.41645156     1.18789577
H     -2.14703097     0.10620510    -1.56100268
H     -1.31994829     1.91403148    -2.65419776
H     -0.78229037     4.40932570    -2.65356486
H     -0.95282955     4.38067539    -0.89230116
H      3.15862661     3.79700959    -2.16654449
H      5.55662826     3.36376886    -1.80288134
H      7.41821982     4.23676814    -0.63277769
H      9.80569654     3.81701292    -0.24477293
H     10.51392380     1.88184532     1.09502551
H      8.82847695     0.35535236     2.03186883
H      6.44386508     0.76369624     1.62602543
H      4.72915769     2.23769242     2.21930265
H      2.34337644     2.64910919     1.83703687
H     -3.16561705     3.51295730    -3.08098993
H     -4.44670754     4.18966773    -1.20752696
H     -3.99790765     1.22004091    -2.87946834
H     -5.98839164     1.87284967    -1.43243127
H     -4.15222477     1.62671736     0.15177425
H     -6.32227818    -1.08240439    -0.10897525
H     -8.36299231    -0.30528569     0.31355113
H     -9.24052408     1.73828816    -0.77784937
H     -9.94264970     1.60204354     0.83938155
H     -7.97821614     2.96394574     1.39742672
H     -8.62991491     0.36146438     2.69915930
H     -6.91065525     1.70843461     3.59675613
H     -7.01071467    -1.46357503     2.27303269
H     -5.48618019    -0.94379316     4.01617540
H     -4.99457234     0.79687192     1.89823260
H     -3.57817729    -0.88441965     1.33842127
H     -2.16231470    -2.72802393    -4.46009921
H     -1.78644359    -3.90426150    -3.22962868
H     -4.22648692    -3.51068808    -3.26011139
H     -3.99493917    -1.78560852    -3.12505488
H     -3.14157553    -1.99189013    -0.84830793
H     -4.69464467    -2.77057609    -0.94364347
H     -2.02044211    -4.23023588    -1.12514870
H     -3.56977212    -5.01299288    -1.07405177
H     -2.67838213    -3.12914081     1.16685549
H     -3.94437948    -4.32122495     1.23543869
H     -2.09365047    -6.11288706     0.89233725
H     -2.06531636    -5.29117760     2.43035015
H     -0.27680339    -3.76405795     1.65226306
H     -0.35928709    -4.41593564     0.04677932
H      0.36929709    -6.66538664     0.91223607
H      0.44675698    -6.01126404     2.52616800
H      2.71831986    -6.00721739     1.61782256
H      2.19405847    -4.35117131     1.74597259
H      2.16343306    -6.00205259    -0.83410499
H      1.60021413    -4.36557483    -0.71261007
H      4.47482087    -5.32621002    -0.34450906
H      3.96208913    -3.75665007     0.20623106
H      3.24354580    -3.23808700    -1.98673680
H      3.72177980    -4.68925152    -2.55695733

