%chk=t08_C12_omega_NH2_conf04.chk
%nprocshared=8
%mem=16GB
#P B3LYP/6-31G(d) SCRF=(PCM,Solvent=Water) Pop=MK NoSymm

t08_C12_omega_NH2 conformer 4 (Boltzmann pop=0.078)

0 1
O     -0.88534638    -2.15109615    -1.55755898
C     -0.13353189    -1.08219667    -0.99293881
C      1.35406437    -1.45994066    -0.84778756
O      1.91952076    -1.86462857    -2.09290224
C      2.12774914    -0.27016453    -0.21642235
C      3.61134045    -0.52940890    -0.19273066
C      4.35477601    -0.18822603    -1.34293693
O      3.70913666     0.36999646    -2.43753003
C      5.71870914    -0.44449264    -1.37520601
C      6.35655803    -1.05319196    -0.30359316
O      7.71316289    -1.32012575    -0.31052811
C      5.59598280    -1.40810684     0.81145111
C      4.23809660    -1.16791086     0.87501250
C      3.47602335    -1.61374550     2.08911118
O      3.77352142    -2.93626597     2.50812866
O      1.56524465     0.08336507     1.06954057
C      0.18464073     0.47006497     0.98398523
C     -0.34697190     0.94080234     2.33795118
O      0.30184431     2.09711125     2.80649937
C     -0.68723695    -0.66410519     0.38913312
O     -2.06981921    -0.33261263     0.35831666
C     -2.34638639     0.62645482    -0.64415071
O     -1.53447696     1.80353174    -0.58523783
C     -1.58461597     2.55750217    -1.80009414
C     -0.63384210     3.75129771    -1.70325734
O      0.72280480     3.35876569    -1.58175368
C      1.18959912     3.53071042    -0.30462087
O      0.51749172     3.93364580     0.62630912
C      2.62749168     3.21053425    -0.08511114
C      3.54577942     3.38029537    -1.10950618
C      4.88626509     3.15740145    -0.89143633
C      5.35142321     2.75403242     0.35955030
C      6.79434029     2.54640616     0.60785371
C      7.75007536     3.36583563     0.00973865
C      9.09406587     3.17407817     0.24759201
C      9.51178933     2.16108319     1.08632442
C      8.58069419     1.34038746     1.68889285
C      7.23645192     1.53295841     1.45589417
C      4.41820113     2.56328505     1.37642661
C      3.08019507     2.78777965     1.15598662
C     -3.03984452     3.01928121    -2.09573798
O     -3.45468988     4.02644515    -1.19450393
C     -4.04096346     1.83611721    -2.04892173
O     -5.36046805     2.34839075    -2.13196794
C     -3.84643568     1.00244079    -0.75946360
O     -4.65991978    -0.16999624    -0.79458353
C     -5.78002951    -0.14286558     0.07881472
O     -6.73902602     0.89868918    -0.15591847
C     -7.95477838     0.69584059     0.57951258
C     -8.97211199     1.77754320     0.20863632
O     -8.48437313     3.06356827     0.48875616
C     -7.67897984     0.65934336     2.11237483
O     -7.24083808     1.90628545     2.62210181
C     -6.61430246    -0.41297173     2.44796735
O     -6.26674662    -0.32863657     3.81746066
C     -5.37175451    -0.16711290     1.57150068
O     -4.36934900    -1.12775757     1.83600188
C     -1.50866796    -1.78571759    -2.71944995
O     -1.44964787    -0.69378150    -3.24496172
C     -2.36946141    -2.85830483    -3.33119337
C     -3.77646702    -2.87239683    -2.73193276
C     -3.79181133    -2.93307341    -1.20236931
C     -3.05167101    -4.13318696    -0.61805883
C     -3.00877484    -4.12508841     0.91344419
C     -2.00530847    -5.12962194     1.49066446
C     -0.55223044    -4.71128845     1.25244367
C      0.47173755    -5.76485312     1.67583113
C      1.91748215    -5.33458382     1.40731981
C      2.23274669    -5.16109553    -0.07979067
C      3.64933269    -4.65979808    -0.34342247
N      3.84732870    -4.21729716    -1.71113487
H     -0.18660845    -0.22977405    -1.68108586
H      1.42352850    -2.32043734    -0.17078414
H      2.45711723    -1.11137814    -2.42822436
H      1.96825045     0.61071283    -0.85351101
H      4.34336688     0.54235841    -3.15757065
H      6.28255728    -0.17069244    -2.24768490
H      8.09910875    -1.12441693    -1.18352507
H      6.09470519    -1.89484097     1.62823463
H      3.63159854    -0.91378093     2.91886427
H      2.40212253    -1.60275746     1.88031233
H      4.61247911    -2.97460966     3.00608027
H      0.15702954     1.31416194     0.28515746
H     -0.20362053     0.15518213     3.08709857
H     -1.42393190     1.14280298     2.27845808
H      0.30892721     2.77753822     2.09096874
H     -0.60871318    -1.53098699     1.05807679
H     -2.08890486     0.12652693    -1.58405727
H     -1.23298750     1.88834593    -2.60085055
H     -0.71861026     4.39296534    -2.58756462
H     -0.90974274     4.35190104    -0.82848556
H      3.19079152     3.69576127    -2.07625742
H      5.58966789     3.28838750    -1.69556987
H      7.42748693     4.16811475    -0.63165056
H      9.82054821     3.81764504    -0.22174632
H     10.56341179     2.00945603     1.26837228
H      8.90522246     0.54127636     2.33564797
H      6.51401554     0.87923696     1.91299815
H      4.75604663     2.25472813     2.35088437
H      2.36789215     2.62129632     1.94513393
H     -3.06930645     3.47225165    -3.10026303
H     -4.41996421     4.15559351    -1.28219496
H     -3.89198982     1.17311324    -2.91479165
H     -5.93192666     1.83553665    -1.51762570
H     -4.12948391     1.61169405     0.10550810
H     -6.30821839    -1.08301104    -0.13347177
H     -8.34151350    -0.28621837     0.26608449
H     -9.20018022     1.74549120    -0.86286814
H     -9.91510195     1.63485141     0.75076458
H     -7.94921151     2.99687656     1.30428829
H     -8.61658724     0.41990124     2.63932580
H     -6.89356369     1.77020343     3.52468582
H     -7.00706238    -1.42171355     2.25134040
H     -5.48690436    -0.88371632     3.99281164
H     -4.97468777     0.81904143     1.84901029
H     -3.57038494    -0.88910969     1.31003181
H     -2.40738898    -2.70314122    -4.41434020
H     -1.87860863    -3.82420724    -3.18220869
H     -4.34605448    -3.71670663    -3.13889510
H     -4.31055841    -1.97129433    -3.05939071
H     -3.33338710    -2.01698315    -0.81203338
H     -4.82208869    -2.92121893    -0.82820561
H     -2.02966545    -4.13811311    -1.00876150
H     -3.49912061    -5.06666213    -0.97875596
H     -2.74596944    -3.12078656     1.26422232
H     -4.01618213    -4.30978076     1.30629387
H     -2.18310683    -6.11590693     1.04701334
H     -2.17005316    -5.26146305     2.56733479
H     -0.34942288    -3.77149027     1.77893674
H     -0.41192453    -4.47555213     0.19346761
H      0.26703532    -6.70457857     1.14988448
H      0.33513940    -5.99262161     2.74001874
H      2.61672066    -6.06009771     1.84064502
H      2.11877105    -4.39386245     1.93308190
H      2.06728666    -6.10616496    -0.60887385
H      1.52537971    -4.46021102    -0.53333000
H      4.38649974    -5.43394210    -0.09790316
H      3.87981194    -3.82180993     0.32585380
H      3.21905014    -3.44658909    -1.90544789
H      3.63344057    -4.95666453    -2.36111238

