%chk=t08_C12_omega_NH2_conf02.chk
%nprocshared=8
%mem=16GB
#P B3LYP/6-31G(d) SCRF=(PCM,Solvent=Water) Pop=MK NoSymm

t08_C12_omega_NH2 conformer 2 (Boltzmann pop=0.103)

0 1
O     -0.86082554    -2.20075500    -1.50610297
C     -0.10460120    -1.14284422    -0.92524833
C      1.38056772    -1.51479893    -0.73806165
O      1.97616707    -2.04303942    -1.91785896
C      2.12365907    -0.25995490    -0.20623614
C      3.62021876    -0.40881614    -0.27086997
C      4.25418582    -0.08457741    -1.49005515
O      3.48981910     0.35398292    -2.56241087
C      5.62861058    -0.24261210    -1.61130417
C      6.38447208    -0.75038009    -0.56410824
O      7.75104178    -0.93343614    -0.66297673
C      5.73240554    -1.09464589     0.62044515
C      4.37097436    -0.93161745     0.77719775
C      3.76342801    -1.37432502     2.07347694
O      4.12710838    -2.70883598     2.39919028
O      1.58960529     0.11479548     1.08492635
C      0.19595924     0.46187786     1.01615941
C     -0.32515204     0.94035111     2.37089418
O      0.31722273     2.10869243     2.81818003
C     -0.66940680    -0.69345720     0.44344370
O     -2.05205550    -0.36299201     0.39198535
C     -2.32058133     0.57855548    -0.63012550
O     -1.50334053     1.75316203    -0.59251103
C     -1.54319672     2.48412704    -1.82189619
C     -0.59355072     3.67976310    -1.73848334
O      0.76259531     3.29356845    -1.59443236
C      1.21645007     3.49677926    -0.31704103
O      0.53003327     3.90423193     0.60145312
C      2.65879488     3.21029066    -0.08177179
C      3.57859547     3.37035721    -1.10637142
C      4.92244042     3.18393753    -0.87582279
C      5.38986940     2.83091451     0.38951301
C      6.83622614     2.66586970     0.64982326
C      7.77411013     3.49086069     0.03136468
C      9.12191358     3.33456930     0.27362496
C      9.56137873     2.35199571     1.13709012
C      8.64811166     1.52805529     1.76208003
C      7.30001066     1.68579856     1.52515145
C      4.45571222     2.64927626     1.40733630
C      3.11384169     2.83475898     1.17357589
C     -2.99467678     2.94545131    -2.13722825
O     -3.40811599     3.97899294    -1.26575530
C     -4.00327764     1.77034936    -2.06446633
O     -5.31977425     2.28832084    -2.16190024
C     -3.81719558     0.96609247    -0.75519084
O     -4.64681424    -0.19475904    -0.76128069
C     -5.75918334    -0.13273580     0.11986364
O     -6.69307093     0.93111349    -0.11577895
C     -7.90716131     0.76522594     0.63147811
C     -8.90166544     1.86747854     0.25888892
O     -8.38395061     3.14473025     0.52568175
C     -7.61863981     0.73552567     2.16207112
O     -7.14365886     1.97538884     2.65551892
C     -6.57894551    -0.36097485     2.49837966
O     -6.21716351    -0.27307740     3.86393126
C     -5.33823114    -0.15567987     1.60883783
O     -4.35900802    -1.14097123     1.87033301
C     -1.42529160    -1.82244959    -2.69492151
O     -1.32141027    -0.72838992    -3.20978519
C     -2.27782840    -2.86690160    -3.36463730
C     -3.72764791    -2.81572954    -2.87982051
C     -3.86180361    -2.89302471    -1.35770907
C     -3.27869865    -4.16650503    -0.75189414
C     -3.19179874    -4.12070595     0.77482580
C     -2.37824439    -5.27575092     1.36799244
C     -0.96314183    -5.34168598     0.78714481
C     -0.00650448    -6.26845013     1.53720696
C      1.33180914    -6.44059447     0.80844180
C      2.01728322    -5.11009690     0.49790809
C      3.36932613    -5.25321283    -0.18887959
N      4.01056332    -3.97090991    -0.40989500
H     -0.13848717    -0.29264452    -1.61780030
H      1.43919042    -2.30007226     0.02611215
H      2.41798811    -1.29459263    -2.37785279
H      1.87163191     0.57949574    -0.86967306
H      4.05551337     0.54740710    -3.33204123
H      6.10695767     0.02053587    -2.53657673
H      8.05873461    -0.76090816    -1.57088894
H      6.30919259    -1.52664257     1.41805019
H      4.08729172    -0.69516304     2.87143880
H      2.67118070    -1.32436627     2.02700836
H      3.96759353    -2.90754103     3.34006589
H      0.14215735     1.29805033     0.30957101
H     -0.16485887     0.16475610     3.12702952
H     -1.40480328     1.13039232     2.32178962
H      0.32369610     2.77456263     2.08903541
H     -0.59562176    -1.54414149     1.13426612
H     -2.06345121     0.05807442    -1.55905238
H     -1.18542361     1.80002537    -2.60714282
H     -0.66967114     4.30409501    -2.63593739
H     -0.87990192     4.29707661    -0.87879056
H      3.22186925     3.65151134    -2.08295783
H      5.62666964     3.30450548    -1.68099788
H      7.43428362     4.26856418    -0.63107462
H      9.83437848     3.98149292    -0.21227361
H     10.61602927     2.22773280     1.32238834
H      8.98978427     0.75566646     2.43203816
H      6.59127131     1.03293527     2.00450642
H      4.79561970     2.37960161     2.39255644
H      2.40067313     2.67629552     1.96370790
H     -3.01644720     3.37156975    -3.15368454
H     -4.37180000     4.11225806    -1.36357369
H     -3.85696594     1.08694515    -2.91471566
H     -5.89066730     1.80813454    -1.52100754
H     -4.09333744     1.59973248     0.09455854
H     -6.31258070    -1.06100842    -0.07991085
H     -8.32024479    -0.21001531     0.33059519
H     -9.13736635     1.83245184    -0.81088432
H     -9.84414455     1.75022471     0.80793803
H     -7.84284252     3.07261990     1.33680243
H     -8.55706216     0.52543883     2.69999399
H     -6.79064881     1.83847981     3.55565682
H     -6.99984790    -1.36074390     2.31476366
H     -5.45173081    -0.84821857     4.03841601
H     -4.91153759     0.82130705     1.87473025
H     -3.55621748    -0.92019718     1.34241102
H     -2.22490495    -2.71767333    -4.44807960
H     -1.83932798    -3.85056372    -3.17632434
H     -4.30616449    -3.62506345    -3.34133918
H     -4.18704780    -1.88433161    -3.23427934
H     -3.34768279    -2.02959548    -0.91937392
H     -4.90995017    -2.78749442    -1.05486873
H     -2.27323169    -4.30932548    -1.15856738
H     -3.84993252    -5.04360429    -1.07719755
H     -2.72639217    -3.17317918     1.07063606
H     -4.19991886    -4.08974204     1.20554851
H     -2.89306639    -6.22780248     1.19441929
H     -2.32001322    -5.17040235     2.45846020
H     -0.54709968    -4.32761870     0.76467781
H     -1.00701604    -5.65834360    -0.26115226
H     -0.48354246    -7.24490332     1.68628778
H      0.16619001    -5.87277950     2.54482841
H      1.17159243    -6.98681452    -0.12861413
H      2.00630660    -7.07225179     1.39940399
H      1.36864630    -4.50226409    -0.14141077
H      2.13783008    -4.53317808     1.42133696
H      3.25850452    -5.77080963    -1.14968804
H      4.03580213    -5.88708292     0.40910173
H      4.13017202    -3.51369371     0.48764147
H      3.39751322    -3.37246382    -0.95197441

