%chk=t08_C12_omega_NH2_conf05.chk
%nprocshared=8
%mem=16GB
#P B3LYP/6-31G(d) SCRF=(PCM,Solvent=Water) Pop=MK NoSymm

t08_C12_omega_NH2 conformer 5 (Boltzmann pop=0.077)

0 1
O     -0.88671294    -2.22974189    -1.58589851
C     -0.10864889    -1.14097937    -1.10005767
C      1.38032073    -1.52718466    -0.98214030
O      1.89688231    -2.02729318    -2.21237514
C      2.17912816    -0.30264890    -0.45583458
C      3.66831913    -0.53077436    -0.51528240
C      4.31936965    -0.28842307    -1.74551355
O      3.59139188     0.18288283    -2.83016692
C      5.68196739    -0.53015327    -1.85956566
C      6.41546060    -1.01101273    -0.78463209
O      7.77392344    -1.25243696    -0.87014737
C      5.75162867    -1.25313005     0.41793237
C      4.39566986    -1.02840649     0.56218277
C      3.77787292    -1.26668125     1.90822455
O      3.74304744    -0.10653392     2.72119078
O      1.68003388     0.09571424     0.84116210
C      0.29691991     0.48028458     0.81693071
C     -0.15551442     0.94023537     2.20079662
O      0.57731746     2.04524955     2.66301255
C     -0.60998984    -0.65587991     0.27995856
O     -1.98857395    -0.30614122     0.28315407
C     -2.28509466     0.68565194    -0.68301612
O     -1.51906824     1.88878432    -0.57090019
C     -1.58937059     2.68689767    -1.75801977
C     -0.69930390     3.92027141    -1.59852124
O      0.66949065     3.58108977    -1.45942693
C      1.11205270     3.77761935    -0.17778084
O      0.42420214     4.20308882     0.73156334
C      2.52833345     3.41726165     0.09281402
C      3.36533569     3.00255164    -0.93130619
C      4.66292360     2.62920397    -0.66425998
C      5.15498083     2.63927541     0.63931835
C      6.51964839     2.16176588     0.94947880
C      7.61794362     2.57730100     0.20072045
C      8.88347885     2.11987822     0.49812438
C      9.07479650     1.24001487     1.54436598
C      7.99689446     0.81663637     2.29493940
C      6.73060475     1.27190770     2.00085094
C      4.31486148     3.07734754     1.65927685
C      3.02599466     3.46828774     1.38645198
C     -3.05895968     3.09442124    -2.06565203
O     -3.52646741     4.06626682    -1.15147618
C     -4.01376253     1.87234310    -2.05928119
O     -5.35175208     2.33398459    -2.14569088
C     -3.79604715     1.02095615    -0.78640626
O     -4.58606856    -0.16687382    -0.82744231
C     -5.69803231    -0.16968205     0.05768777
O     -6.68281870     0.85092566    -0.16195890
C     -7.88732482     0.61469847     0.58212853
C     -8.93349880     1.67375712     0.22668475
O     -8.47534759     2.96923201     0.51328888
C     -7.59817572     0.57528389     2.11249727
O     -7.18560947     1.82892947     2.62712240
C     -6.50522797    -0.47292112     2.43244553
O     -6.14790458    -0.38809299     3.79933595
C     -5.27647775    -0.19207405     1.54705702
O     -4.24845067    -1.12825357     1.80010533
C     -1.60954047    -1.89108401    -2.69672608
O     -1.61041878    -0.80738887    -3.24133020
C     -2.49499332    -2.98718834    -3.22611269
C     -3.86328077    -2.99369913    -2.54428451
C     -3.78332139    -3.00452550    -1.01601509
C     -2.99167196    -4.17565021    -0.44042995
C     -2.87587565    -4.12849700     1.08625647
C     -1.83952082    -5.11168331     1.64126610
C     -0.40216514    -4.69710779     1.31784622
C      0.64745692    -5.72115758     1.75100631
C      2.07882847    -5.28988638     1.41464907
C      2.34276731    -5.18078016    -0.08817443
C      3.74940257    -4.69246515    -0.42222553
N      3.89591354    -4.30694555    -1.81356395
H     -0.17602405    -0.32391357    -1.82834360
H      1.46459721    -2.33778393    -0.24752523
H      2.39020766    -1.29183282    -2.64031631
H      1.96310814     0.54645905    -1.11850851
H      4.17028492     0.31521390    -3.60250636
H      6.17130638    -0.33820715    -2.79664369
H      8.08988709    -1.13156891    -1.78369905
H      6.32643283    -1.61805480     1.24961884
H      2.76385519    -1.67211240     1.80570930
H      4.35510865    -2.02097638     2.45476704
H      2.99568929     0.46973603     2.44359680
H      0.23521894     1.32716500     0.12397074
H     -0.01582577     0.12898268     2.92287552
H     -1.22364822     1.19208408     2.19700410
H      0.47687117     2.79290858     2.02448198
H     -0.52751543    -1.50110174     0.97597984
H     -2.00269264     0.24445620    -1.64514985
H     -1.19249197     2.06742839    -2.57714837
H     -0.79443822     4.59004110    -2.46064343
H     -1.02231948     4.47296328    -0.70813880
H      2.97613710     2.95894975    -1.93464788
H      5.30157249     2.28690059    -1.46013204
H      7.46761153     3.26849307    -0.61114443
H      9.72574827     2.44820958    -0.08921451
H     10.06473784     0.87850996     1.77098101
H      8.14415870     0.12082724     3.10503423
H      5.87855619     0.90323255     2.54808808
H      4.68668408     3.10428570     2.66958089
H      2.38555684     3.81334774     2.18020035
H     -3.09209865     3.56640616    -3.06132236
H     -4.49287813     4.16786485    -1.25951872
H     -3.83070684     1.23450713    -2.93764841
H     -5.90388334     1.80401255    -1.52812725
H     -4.08648707     1.61351549     0.08784824
H     -6.20796503    -1.11968304    -0.15467705
H     -8.25308037    -0.37440217     0.26562058
H     -9.16876330     1.64401388    -0.84332761
H     -9.86854511     1.50387858     0.77469121
H     -7.93337102     2.90887539     1.32481661
H     -8.52526741     0.30994623     2.64560901
H     -6.82823563     1.69536250     3.52603729
H     -6.87558103    -1.48956104     2.23317081
H     -5.35107014    -0.92207551     3.96386303
H     -4.90209727     0.80231654     1.82685577
H     -3.46128537    -0.87140603     1.26488991
H     -2.59846417    -2.86430016    -4.30903810
H     -1.98773019    -3.94481717    -3.07845312
H     -4.44794688    -3.85524929    -2.88890330
H     -4.42442000    -2.10724523    -2.86670257
H     -3.31442055    -2.06990465    -0.68661568
H     -4.78846494    -2.99440461    -0.57905563
H     -1.98987398    -4.17174020    -0.88054207
H     -3.43852032    -5.12574079    -0.75565065
H     -2.60550314    -3.11364916     1.39901910
H     -3.86227009    -4.31001927     1.53060882
H     -2.03479001    -6.11207025     1.23838138
H     -1.94921110    -5.20995962     2.72851051
H     -0.18528897    -3.73032301     1.78681513
H     -0.30926165    -4.51567590     0.24296476
H      0.43471517    -6.68548213     1.27515158
H      0.55002450    -5.90215667     2.82842731
H      2.79960010    -5.98907012     1.85620438
H      2.28605430    -4.32422086     1.89032537
H      2.16022758    -6.14767990    -0.57012652
H      1.61894515    -4.49990349    -0.54649901
H      4.49490346    -5.45744601    -0.17288412
H      4.00495411    -3.82849100     0.20354580
H      3.24629661    -3.55670068    -2.01740159
H      3.67268182    -5.07678586    -2.42383680

