%chk=t08_C12_omega_NH2_conf01.chk
%nprocshared=8
%mem=16GB
#P B3LYP/6-31G(d) SCRF=(PCM,Solvent=Water) Pop=MK NoSymm

t08_C12_omega_NH2 conformer 1 (Boltzmann pop=0.107)

0 1
O     -0.91121935    -2.23179375    -1.54748077
C     -0.16131096    -1.14649643    -1.01314024
C      1.33304671    -1.49799530    -0.88212943
O      1.87304437    -1.97670924    -2.10920657
C      2.08517868    -0.25282461    -0.33531046
C      3.58243147    -0.40656432    -0.43655581
C      4.18348577    -0.14430461    -1.68872758
O      3.40989382     0.32575730    -2.74204138
C      5.54210815    -0.37610933    -1.86071651
C      6.31748781    -0.88416429    -0.82871901
O      7.66785925    -1.13980724    -0.97332434
C      5.70444882    -1.13462600     0.39832313
C      4.36582698    -0.87826594     0.61414519
C      3.82011281    -1.10749995     1.99215798
O      4.82727297    -1.03250705     2.99142809
O      1.57314352     0.08140595     0.97694458
C      0.17924852     0.43307329     0.94957013
C     -0.32561151     0.86383806     2.32797376
O      0.29018809     2.03425862     2.80478585
C     -0.69785106    -0.70653266     0.36857186
O     -2.07891444    -0.36622312     0.33976932
C     -2.34833674     0.60363906    -0.65539381
O     -1.53519429     1.77825863    -0.58090339
C     -1.56067244     2.53236939    -1.79570492
C     -0.59942413     3.71698718    -1.68190351
O      0.74980879     3.31150598    -1.51494624
C      1.18334397     3.50180307    -0.22815244
O      0.48860396     3.93414188     0.67266455
C      2.60600856     3.15506310     0.04810818
C      3.55499723     3.20974807    -0.96101936
C      4.87731226     2.93239479    -0.69513591
C      5.29305330     2.58758603     0.59053756
C      6.71006878     2.28815892     0.88820841
C      7.73781165     3.00247860     0.27576406
C      9.05760557     2.71617617     0.55060340
C      9.37774795     1.71215401     1.44146684
C      8.37367467     0.99732451     2.06142705
C      7.05350203     1.28372098     1.79152108
C      4.33164607     2.52451335     1.59547274
C      3.01344221     2.80235604     1.32634213
C     -3.00980557     3.00220375    -2.11110486
O     -3.42829487     4.01563383    -1.21877138
C     -4.02085979     1.82555098    -2.07165071
O     -5.33600052     2.34716768    -2.16573615
C     -3.84443113     0.98962723    -0.78048388
O     -4.66711615    -0.17616271    -0.81871349
C     -5.78917293    -0.13704042     0.05162623
O     -6.73854478     0.91184413    -0.19048686
C     -7.95776349     0.72262656     0.54293155
C     -8.96642230     1.80942345     0.16332899
O     -8.47134822     3.09368737     0.43917022
C     -7.68573402     0.69242295     2.07653152
O     -7.23701443     1.93826273     2.57989143
C     -6.63194937    -0.38798791     2.42050547
O     -6.28701499    -0.29937267     3.79040822
C     -5.38504869    -0.15816779     1.54580923
O     -4.39211555    -1.12656730     1.81813139
C     -1.57291286    -1.88319543    -2.69333395
O     -1.53135149    -0.79884307    -3.23595963
C     -2.45123599    -2.96415498    -3.26417666
C     -3.84243914    -2.96197556    -2.62898078
C     -3.81608449    -2.99202956    -1.09881503
C     -3.05911261    -4.18141088    -0.51388362
C     -2.97131610    -4.14712057     1.01508479
C     -1.95110122    -5.14298756     1.57822308
C     -0.50501095    -4.72892266     1.29337918
C      0.53023922    -5.77526675     1.70738453
C      1.97063594    -5.33991606     1.41745235
C      2.26721713    -5.17241627    -0.07395237
C      3.68342912    -4.68018227    -0.35881143
N      3.86531535    -4.25393023    -1.73393856
H     -0.23252791    -0.30845991    -1.71680061
H      1.43212928    -2.30917143    -0.14964682
H      2.30899796    -1.21286760    -2.54819693
H      1.81926528     0.60289130    -0.97139080
H      3.96021891     0.48654065    -3.52988988
H      5.99242727    -0.16800866    -2.81353132
H      7.95686922    -0.97842521    -1.88930574
H      6.30406818    -1.51613215     1.20455919
H      3.06724511    -0.34521012     2.22109120
H      3.33020558    -2.08625383     2.03645949
H      4.48070734    -1.25001955     3.87517222
H      0.11126781     1.28923438     0.26927181
H     -0.13606785     0.06976618     3.05774320
H     -1.41019289     1.02903912     2.30208419
H      0.27159344     2.72505510     2.09940607
H     -0.62191602    -1.56598982     1.04716906
H     -2.08741071     0.11435291    -1.59998794
H     -1.20224163     1.86112146    -2.59153914
H     -0.65109755     4.35184715    -2.57359297
H     -0.89487213     4.32778339    -0.82072058
H      3.23699047     3.47149848    -1.95605104
H      5.60305785     2.96426117    -1.48942440
H      7.49069046     3.79523596    -0.40953975
H      9.84153330     3.27755334     0.06840503
H     10.41049280     1.48596515     1.65195274
H      8.62180428     0.20777829     2.75226621
H      6.27407803     0.69970520     2.25268308
H      4.63140570     2.26042302     2.59522238
H      2.28022252     2.72184690     2.10852431
H     -3.02393132     3.45154581    -3.11755736
H     -4.39191465     4.14952982    -1.31706100
H     -3.87003042     1.16096995    -2.93603834
H     -5.91528632     1.84155681    -1.55257276
H     -4.12772994     1.60280532     0.08164895
H     -6.32440819    -1.07374706    -0.15812040
H     -8.35115768    -0.25830271     0.23424259
H     -9.19088721     1.77359593    -0.90882005
H     -9.91225116     1.67554366     0.70270641
H     -7.93920735     3.02701129     1.25672476
H     -8.62662756     0.46470290     2.60279827
H     -6.89281507     1.80407916     3.48388329
H     -7.03343230    -1.39412560     2.22824731
H     -5.51230485    -0.86026586     3.97049707
H     -4.97933892     0.82541170     1.82001090
H     -3.58952852    -0.89834534     1.29287818
H     -2.51638017    -2.82872885    -4.34857430
H     -1.95960340    -3.92886385    -3.11028087
H     -4.42455357    -3.81266799    -3.00358219
H     -4.38264576    -2.06583061    -2.96003345
H     -3.34661517    -2.06847763    -0.74059519
H     -4.83533891    -2.97256215    -0.69594143
H     -2.04859580    -4.19364513    -0.93329731
H     -3.51625772    -5.12112828    -0.84508267
H     -2.69864669    -3.13711288     1.34117040
H     -3.96680761    -4.32476814     1.44032759
H     -2.14100020    -6.13583365     1.15469051
H     -2.08551538    -5.25868978     2.66095284
H     -0.28904711    -3.78090531     1.79947985
H     -0.39219421    -4.51037114     0.22731968
H      0.32230684    -6.71910731     1.19014874
H      0.40973842    -5.99738110     2.77472853
H      2.67821754    -6.06056045     1.84560707
H      2.17301307    -4.39537118     1.93556700
H      2.09005007    -6.11838235    -0.59761947
H      1.55679495    -4.46959096    -0.52004457
H      4.41968759    -5.45570096    -0.11459952
H      3.92756915    -3.83637947     0.29830447
H      3.22113417    -3.49703323    -1.93040722
H      3.65527503    -5.00481050    -2.37189281

