%chk=cand02_naphthoyl_6OH_conf01.chk
%nprocshared=8
%mem=16GB
#P B3LYP/6-31G(d) SCRF=(PCM,Solvent=Water) Pop=MK NoSymm

cand02_naphthoyl_6OH conformer 1 (Boltzmann pop=0.066)

0 1
C     -5.58620775    -2.19158099     0.60475329
C     -5.53297155    -1.81629676    -0.86668816
C     -4.37720884    -0.86987552    -1.19396194
C     -4.18983192    -0.63183169    -2.69548567
C     -5.37259027     0.08511518    -3.35693240
C     -5.64039685     1.42467656    -2.75848637
C     -6.82474908     1.80356301    -2.27909525
C     -7.04274751     3.08805044    -1.64451742
C     -8.16032887     3.40388988    -0.98896197
C     -8.34525781     4.67644032    -0.20900242
O     -9.71069977     5.09755053    -0.15636518
C     -7.72098145     4.58424014     1.19598985
C     -6.29308750     4.13656122     1.16057276
C     -5.86181248     2.94099109     1.57260961
C     -4.51136223     2.46757410     1.35884544
C     -4.00307724     1.38731284     1.96117205
C     -2.65473380     0.87636550     1.68085767
O     -2.12003002     0.11463554     2.46535935
O     -2.09410319     1.31987197     0.50994240
C     -0.80863582     0.75751598     0.23283107
C      0.29417474     1.68932772     0.78911069
O      0.35480090     1.53272268     2.20904735
C      1.66637043     1.40845286     0.12268436
C      2.75178294     2.28145519     0.70379178
C      2.76847413     3.65101544     0.37449115
O      1.94190057     4.15512680    -0.60896331
C      3.64279027     4.50169639     1.03742110
C      4.52387609     4.03142581     2.00010042
O      5.36402450     4.92468703     2.63998094
C      4.52426533     2.66493648     2.28026956
C      3.66103327     1.79324608     1.64111662
C      3.69859061     0.33754464     2.00745252
O      2.66944639    -0.05361332     2.89645120
O      1.54314996     1.52162555    -1.30984472
C      0.73291330     0.47557649    -1.86047869
C      0.72030034     0.55122440    -3.38881857
O      1.99691253     0.36555855    -3.94637463
C     -0.71332700     0.47110117    -1.28970401
O     -1.40918732    -0.74733777    -1.56993840
C     -0.63385944    -1.92569353    -1.34356426
O      0.34997882    -2.11688804    -2.36730022
C      1.18078517    -3.24624911    -2.11787370
C      2.40683877    -3.21223936    -3.02430644
O      3.17641036    -2.05073269    -2.80837171
C      0.34399928    -4.53805301    -2.26535781
O     -0.17129361    -4.67245554    -3.57442583
C     -0.81357056    -4.53995216    -1.23710833
O     -1.71742065    -5.57465571    -1.58128358
C     -1.55372622    -3.17486484    -1.17320717
O     -2.28546880    -3.11733630     0.04611365
C     -1.46003900    -2.87233535     1.18687670
O     -0.13020638    -3.41488569     1.11346439
C      0.70456474    -2.98683277     2.19961704
C      2.15336744    -3.44771296     2.03334615
O      2.98206659    -2.95267775     3.06031841
C      0.13138261    -3.51111378     3.53730178
O      0.13783964    -4.92307414     3.58709042
C     -1.30717239    -2.99481955     3.75026698
O     -1.86278198    -3.63616036     4.88376165
C     -2.18722633    -3.26308630     2.50394138
O     -3.37548345    -2.50492582     2.63869836
C      3.81381293    -2.11354468    -1.59619099
O      3.71342134    -3.04561428    -0.81850126
C      4.68080098    -0.96016188    -1.23785151
C      5.74708789    -1.14609248    -0.34032686
C      6.55685734    -0.11040473     0.01089244
C      6.34025392     1.18300263    -0.51785880
C      7.15274245     2.27615133    -0.18184342
C      6.92388427     3.53584379    -0.70384316
O      7.75798370     4.57425651    -0.34714769
C      5.83643420     3.71553345    -1.59297203
C      5.03510342     2.67434986    -1.93763767
C      5.26392375     1.38038784    -1.41602011
C      4.45169769     0.28817053    -1.75857479
H     -5.68157028    -1.30665208     1.23559355
H     -6.42592018    -2.85136882     0.83166869
H     -4.67318476    -2.70654591     0.90798618
H     -6.48208747    -1.35874903    -1.17200873
H     -5.44137429    -2.72182822    -1.47945694
H     -4.52975703     0.08803978    -0.68319220
H     -3.45166690    -1.27264073    -0.76333948
H     -4.00689142    -1.59156323    -3.19387194
H     -3.27861231    -0.04373334    -2.86008554
H     -6.27211363    -0.53535205    -3.27838924
H     -5.19755411     0.19912833    -4.43432991
H     -4.80278410     2.10139984    -2.69253257
H     -7.66195825     1.12632593    -2.33004385
H     -6.21952917     3.78469175    -1.68917538
H     -8.95474587     2.68018052    -0.93950585
H     -7.83229014     5.47900267    -0.76276889
H    -10.25709912     4.44193520     0.31309950
H     -8.30506218     3.87878051     1.79376698
H     -7.81000755     5.54918028     1.70636861
H     -5.59089931     4.79995947     0.68099962
H     -6.53934613     2.25237261     2.05415799
H     -3.90845032     3.01492004     0.64985013
H     -4.58218728     0.85429063     2.69553842
H     -0.74447142    -0.18810687     0.76875366
H      0.00491461     2.73076857     0.59150207
H     -0.50064350     1.13887868     2.48929053
H      1.91541924     0.35960210     0.31708114
H      1.57537835     3.38972057    -1.09597475
H      3.63804377     5.54799880     0.79771172
H      5.89717420     4.47800931     3.32050650
H      5.20395649     2.28213354     3.01892655
H      3.64562748    -0.28963774     1.11079384
H      4.65251644     0.09165181     2.48781233
H      1.87001196     0.49976268     2.73132657
H      1.22710441    -0.45948902    -1.57628334
H      0.35972840     1.53248620    -3.71285919
H      0.04128683    -0.20383481    -3.80648888
H      2.36511789    -0.49843370    -3.64034500
H     -1.28424416     1.25853180    -1.79904391
H     -0.08267818    -1.77768596    -0.40955698
H      1.51553890    -3.14840706    -1.07461962
H      2.08673313    -3.21605293    -4.07207107
H      3.04983379    -4.08574441    -2.86302298
H      0.99380601    -5.41119627    -2.09288889
H     -0.88168064    -5.34441028    -3.57303506
H     -0.42818130    -4.77408689    -0.23578949
H     -2.46771829    -5.59211963    -0.96196202
H     -2.29469226    -3.15511650    -1.98089461
H     -1.34524294    -1.78688794     1.22746445
H      0.68226881    -1.88711044     2.19540158
H      2.19372683    -4.54142557     2.07865599
H      2.56651839    -3.14553970     1.06364895
H      2.92614891    -1.96718946     3.07866221
H      0.77794928    -3.16966052     4.36232352
H     -0.41029153    -5.21672800     4.34184760
H     -1.29306458    -1.91233543     3.94683523
H     -2.80190318    -3.39993916     4.97889727
H     -2.46979333    -4.32151016     2.46721474
H     -3.09093668    -1.56028151     2.61266070
H      5.90680615    -2.13098706     0.06580025
H      7.37245514    -0.26519421     0.69637294
H      7.97944888     2.14233864     0.49116132
H      7.50583800     5.39780800    -0.80057809
H      5.64665858     4.69534411    -1.99316654
H      4.20665895     2.82214630    -2.60964987
H      3.62985375     0.44463933    -2.43173430

