%chk=cand02_naphthoyl_6OH_conf05.chk
%nprocshared=8
%mem=16GB
#P B3LYP/6-31G(d) SCRF=(PCM,Solvent=Water) Pop=MK NoSymm

cand02_naphthoyl_6OH conformer 5 (Boltzmann pop=0.042)

0 1
C     -4.33947293    -0.83093848    -0.55415656
C     -4.78526112    -0.84073299    -2.00638311
C     -4.07790569     0.23223475    -2.83468764
C     -4.59201863     0.35635882    -4.27248923
C     -6.07228752     0.75830645    -4.36197047
C     -6.39500993     1.96282569    -3.54095929
C     -7.29029927     1.96534642    -2.55325490
C     -7.50388221     3.09585215    -1.67165945
C     -8.37815274     3.07490601    -0.66491485
C     -8.52185821     4.16111380     0.36377105
O     -9.89320702     4.47784675     0.62852072
C     -7.80100197     3.78366492     1.67048086
C     -6.36715418     3.41480587     1.46037332
C     -5.73508774     2.40942221     2.07084960
C     -4.37369818     2.03528633     1.75953202
C     -3.70013818     1.07384182     2.39976688
C     -2.34019466     0.66919106     2.01943127
O     -1.66100905     0.01782692     2.79239460
O     -1.94054519     1.08462934     0.77185436
C     -0.63651220     0.63863690     0.38882490
C      0.42636325     1.66789501     0.85046617
O      0.56503071     1.62018223     2.27118725
C      1.79114305     1.44036375     0.14622604
C      2.83447925     2.41883197     0.63330173
C      2.75181382     3.76158205     0.21304546
O      1.85543516     4.14570665    -0.76370160
C      3.59622958     4.71212051     0.77315224
C      4.54510274     4.36380824     1.72337700
O      5.39380998     5.28994773     2.30254318
C      4.63808851     3.02383774     2.09762206
C      3.80811848     2.05583416     1.56327864
C      3.95238139     0.63969546     2.04101565
O      2.99093908     0.26898808     3.00837568
O      1.61765493     1.46076771    -1.28510171
C      0.80913960     0.37138437    -1.74661671
C      0.77516027     0.33607651    -3.27581500
O      2.04134264     0.08415319    -3.83267567
C     -0.62099859     0.40692165    -1.14560565
O     -1.37294512    -0.76272173    -1.47291538
C     -0.66319320    -1.96936789    -1.20554234
O      0.35983203    -2.24598010    -2.16841646
C      1.17031675    -3.35466324    -1.78274806
C      2.41682007    -3.43001110    -2.65747614
O      3.21145222    -2.27483529    -2.51679378
C      0.32601468    -4.65032679    -1.82398696
O     -0.13519691    -4.92660137    -3.13105409
C     -0.87412449    -4.53466038    -0.85457971
O     -1.75661150    -5.61351614    -1.10172014
C     -1.61843095    -3.18285572    -1.00868311
O     -2.46400243    -3.00733729     0.12090188
C     -1.75405740    -2.72474511     1.33136453
O     -0.32420476    -2.88232846     1.27759024
C      0.34387967    -2.40867742     2.44990422
C      1.85723050    -2.44087388     2.22405219
O      2.31557770    -3.72508565     1.84059217
C     -0.10987372    -3.24769274     3.66880789
O      0.24285624    -4.60814001     3.49509934
C     -1.64396569    -3.12202510     3.83934811
O     -2.08195059    -3.91127593     4.92465316
C     -2.34093325    -3.52867652     2.51964512
O     -3.74346059    -3.35111557     2.61414867
C      3.91790364    -2.31513639    -1.34199664
O      3.87218207    -3.23378903    -0.54326424
C      4.78561365    -1.14166695    -1.06133118
C      5.88954392    -1.27347289    -0.20069287
C      6.69464549    -0.21091972     0.07417043
C      6.43708200     1.05616635    -0.49929164
C      7.24038084     2.17633040    -0.23381555
C      6.96613384     3.40790090    -0.80024829
O      7.73829827     4.52415143    -0.55828854
C      5.84901837     3.52685906    -1.66172642
C      5.05607731     2.46020204    -1.93765974
C      5.32663558     1.19607953    -1.36654397
C      4.51981710     0.07848264    -1.62875716
H     -4.81367791    -1.62189296     0.02867227
H     -3.26008012    -0.96722882    -0.47570505
H     -4.57652995     0.12031795    -0.07698226
H     -5.87075199    -0.69508045    -2.05881828
H     -4.60519226    -1.82573414    -2.45521585
H     -4.18288197     1.19878958    -2.32777015
H     -3.00020375     0.02667911    -2.83498390
H     -4.42698503    -0.58916493    -4.80323408
H     -3.98910258     1.09997386    -4.80860601
H     -6.70199344    -0.07717172    -4.03583330
H     -6.35967378     0.93792255    -5.40567310
H     -5.81761664     2.85361301    -3.73159066
H     -7.86358880     1.07412292    -2.35326004
H     -6.87944061     3.96011437    -1.83586488
H     -8.97444925     2.19278709    -0.50852282
H     -8.05668256     5.07820050    -0.03188941
H    -10.36989661     4.69649142    -0.19082196
H     -8.33496965     2.94071501     2.11945641
H     -7.88272820     4.60463969     2.39039118
H     -5.82398163     4.00323446     0.73771742
H     -6.24570010     1.81029549     2.80865923
H     -3.90212979     2.56006996     0.94212533
H     -4.14926542     0.55330261     3.22779346
H     -0.45992892    -0.30919668     0.90054968
H      0.06164177     2.67443623     0.60183124
H     -0.22357759     1.15363736     2.62210506
H      2.12071655     0.42500107     0.38901412
H      1.52420146     3.32859440    -1.18774443
H      3.50690760     5.72978826     0.44496662
H      5.20676216     6.18757165     1.97626813
H      5.37203227     2.75386948     2.83506016
H      3.89980840    -0.06048352     1.20069568
H      4.93861974     0.48735624     2.49449528
H      2.14650009     0.74524725     2.82498100
H      1.30952668    -0.54044936    -1.40184084
H      0.42721270     1.29751032    -3.66612195
H      0.07725323    -0.43493907    -3.62770967
H      2.39819586    -0.76200589    -3.46856778
H     -1.16563635     1.24281073    -1.60361824
H     -0.13721715    -1.80722154    -0.26200811
H      1.48054602    -3.15417218    -0.74607196
H      2.11981319    -3.51148145    -3.70893644
H      3.03077274    -4.30448213    -2.41028036
H      0.95766449    -5.50343593    -1.52838245
H     -0.84514892    -5.59754469    -3.08590703
H     -0.52957583    -4.62607829     0.18500644
H     -2.57179098    -5.51139601    -0.57824318
H     -2.27553297    -3.24257904    -1.88433168
H     -1.94627562    -1.66077769     1.52031372
H      0.01849889    -1.37062122     2.60663213
H      2.11845361    -1.71621629     1.44292854
H      2.39680594    -2.13920159     3.12984323
H      2.91072397    -3.65329788     1.06305519
H      0.39616507    -2.90099593     4.58383631
H      1.05092772    -4.62292614     2.94357160
H     -1.92602317    -2.08402253     4.07150836
H     -1.73696639    -4.81570385     4.82098682
H     -2.14574085    -4.59576305     2.34766868
H     -4.16324727    -3.55587578     1.75674359
H      6.08602308    -2.23871971     0.23494389
H      7.53861237    -0.32409021     0.73295440
H      8.08235528     2.07095556     0.42426484
H      8.48473050     4.31257431     0.02950462
H      5.64404754     4.49148681    -2.09180783
H      4.20413363     2.56418995    -2.58801470
H      3.67411867     0.19192329    -2.28057122

