%chk=cand02_naphthoyl_6OH_conf04.chk
%nprocshared=8
%mem=16GB
#P B3LYP/6-31G(d) SCRF=(PCM,Solvent=Water) Pop=MK NoSymm

cand02_naphthoyl_6OH conformer 4 (Boltzmann pop=0.044)

0 1
C     -5.68322926    -1.19440269     0.79298926
C     -5.41762474    -1.36116915    -0.69438758
C     -4.27949256    -0.46942027    -1.19048518
C     -4.11952178    -0.45767379    -2.71378702
C     -5.31543548     0.16282133    -3.45123582
C     -5.67841742     1.50965747    -2.91872147
C     -6.76758209     1.74339196    -2.18573260
C     -7.03021728     3.00861548    -1.52873363
C     -8.03286852     3.18609694    -0.66677657
C     -8.21828000     4.41702905     0.17601302
O     -9.59933461     4.74707039     0.36076439
C     -7.52057410     4.26232212     1.54077774
C     -6.09939550     3.81286790     1.40968487
C     -5.60667456     2.67536685     1.90828355
C     -4.28026619     2.19140125     1.59518993
C     -3.70722335     1.14058550     2.19166706
C     -2.39230619     0.62491591     1.78854712
O     -1.76401274    -0.10930471     2.52941084
O     -1.96067387     1.05419204     0.55849937
C     -0.65288986     0.59610888     0.21149444
C      0.39697390     1.61524422     0.72104946
O      0.47574267     1.55634099     2.14620955
C      1.77923185     1.38064060     0.05774690
C      2.83178054     2.31607918     0.60593407
C      2.81852353     3.66546615     0.19973658
O      1.98036379     4.10147345    -0.80600424
C      3.67588693     4.57212529     0.80878467
C      4.56754195     4.17958839     1.79563370
O      5.39222591     5.12600974     2.37695780
C      4.59203497     2.83368294     2.15972314
C      3.74853306     1.90662965     1.57439393
C      3.80593477     0.48491938     2.05517492
O      2.81304628     0.18006174     3.01269331
O      1.64381312     1.45217647    -1.37655526
C      0.84652698     0.38201708    -1.89736507
C      0.83708015     0.41437100    -3.42691487
O      2.11837072     0.22265130    -3.97205352
C     -0.59554960     0.37749681    -1.32272127
O     -1.31628904    -0.80707745    -1.66867649
C     -0.58467848    -2.00597089    -1.42434632
O      0.48783299    -2.19595023    -2.35409221
C      1.31348956    -3.30437060    -2.00597425
C      2.59443723    -3.29094136    -2.83358043
O      3.32588269    -2.09753558    -2.66270098
C      0.51149277    -4.61769330    -2.16811137
O      0.14112573    -4.83190751    -3.51531041
C     -0.74996772    -4.59474706    -1.27070420
O     -1.58840922    -5.67016735    -1.65257419
C     -1.51746959    -3.25032528    -1.37276447
O     -2.43792527    -3.17526335    -0.29307192
C     -1.81687108    -2.89238168     0.96213648
O     -0.41743916    -3.21566349     1.08090589
C      0.18507124    -2.73678282     2.30025696
C      1.66074532    -3.14132241     2.36278289
O      2.31176204    -2.63973518     3.50893090
C     -0.55501592    -3.27971385     3.55340576
O     -0.33670332    -4.66514417     3.72666345
C     -2.07603976    -3.01585711     3.46797892
O     -2.73044563    -3.66407030     4.53974745
C     -2.59225232    -3.55688579     2.12282731
O     -3.99328097    -3.40144294     2.01050818
C      3.87882651    -2.03608135    -1.40907781
O      3.70580110    -2.87021765    -0.53839576
C      4.75450629    -0.86612834    -1.13179373
C      5.82144468    -0.99562755    -0.22516886
C      6.63667756     0.05792250     0.05265789
C      6.42424854     1.31339298    -0.56232817
C      7.23632894     2.42586195    -0.29588952
C      7.00712531     3.65005255    -0.89635657
O      7.83649974     4.71130534    -0.60102613
C      5.92286293     3.77146158    -1.79908640
C      5.12329490     2.70985818    -2.07924156
C      5.34993344     1.45263274    -1.47373859
C      4.53414803     0.34253968    -1.74189405
H     -5.99343281    -0.17428169     1.02391157
H     -6.46826996    -1.86381653     1.15006443
H     -4.78508507    -1.39834975     1.37761695
H     -6.33283293    -1.14172420    -1.25658571
H     -5.18338093    -2.40695639    -0.92938549
H     -4.44264333     0.55539551    -0.83753915
H     -3.34132238    -0.78522440    -0.71602599
H     -3.94141857    -1.47918577    -3.07055080
H     -3.21196969     0.10086894    -2.97470257
H     -6.18507241    -0.49943782    -3.37583321
H     -5.10761570     0.23432812    -4.52640400
H     -4.96027435     2.30173287    -3.06142437
H     -7.47504702     0.94786814    -2.01467146
H     -6.32754391     3.80430959    -1.72182260
H     -8.69886452     2.36544708    -0.46434852
H     -7.75646865     5.26710832    -0.35142487
H    -10.05913768     4.83421223    -0.49211107
H     -8.08439624     3.53184731     2.12873642
H     -7.58075824     5.20168656     2.10045557
H     -5.46137112     4.42399297     0.79094451
H     -6.21681140     2.04407558     2.53558638
H     -3.75486774     2.70537720     0.80409271
H     -4.20385414     0.63879154     3.00375514
H     -0.49617525    -0.35787852     0.71913455
H      0.04871752     2.62589927     0.46587024
H     -0.31580170     1.06637029     2.45759401
H      2.07548817     0.34871593     0.27480576
H      1.62683259     3.30531716    -1.25054864
H      3.64955556     5.60164138     0.50605464
H      5.92854885     4.73426370     3.08828401
H      5.27527647     2.51068647     2.92326617
H      3.71945209    -0.21807028     1.21979247
H      4.77670495     0.27862546     2.52032917
H      1.99282860     0.67824038     2.78712075
H      1.34881851    -0.53960028    -1.58375299
H      0.46829941     1.38204806    -3.78094152
H      0.16713684    -0.35945618    -3.82414694
H      2.50164535    -0.61432968    -3.61397827
H     -1.15223634     1.20247051    -1.78644302
H     -0.11885531    -1.89672636    -0.44050438
H      1.57786204    -3.16464591    -0.94716146
H      2.33890020    -3.37592670    -3.89564336
H      3.24660245    -4.13379272    -2.57568518
H      1.15138183    -5.46782957    -1.88116171
H     -0.54884590    -5.52380282    -3.55209981
H     -0.47239386    -4.75801361    -0.22013931
H     -2.43019350    -5.63347611    -1.16481689
H     -2.11684031    -3.26175832    -2.29085676
H     -1.90270151    -1.80450449     1.08085515
H      0.11415239    -1.64056493     2.28525599
H      1.72033511    -4.23422562     2.41749975
H      2.20695220    -2.83537720     1.46131158
H      2.48690280    -1.67353438     3.41120574
H     -0.14405283    -2.78699373     4.44970543
H     -0.94672589    -4.99800486     4.41434624
H     -2.28606480    -1.93807239     3.53875220
H     -3.69154585    -3.66215001     4.38823598
H     -2.37494791    -4.63417270     2.10106792
H     -4.28606588    -3.76778722     1.15335210
H      5.97715277    -1.95092493     0.24765201
H      7.45213256    -0.05291061     0.74676919
H      8.06084660     2.33586065     0.38698561
H      7.57989190     5.50619858    -1.10077454
H      5.73445239     4.72339733    -2.26223485
H      4.29676444     2.81397336    -2.76169147
H      3.71365012     0.45452611    -2.42575816

