%chk=cand02_naphthoyl_6OH_conf03.chk
%nprocshared=8
%mem=16GB
#P B3LYP/6-31G(d) SCRF=(PCM,Solvent=Water) Pop=MK NoSymm

cand02_naphthoyl_6OH conformer 3 (Boltzmann pop=0.057)

0 1
C     -4.35242719    -1.02420470    -0.44030353
C     -4.80598461    -1.03758208    -1.88969278
C     -4.15525121     0.08042879    -2.70496261
C     -4.67854954     0.19705810    -4.13995329
C     -6.16632269     0.57071065    -4.21953136
C     -6.49823936     1.78216615    -3.41263417
C     -7.35183654     1.77729862    -2.38871735
C     -7.56169485     2.91820382    -1.51964269
C     -8.39760543     2.89498249    -0.48083992
C     -8.52237017     3.99295339     0.53781723
O     -9.88809794     4.28541174     0.85507571
C     -7.73967162     3.64877282     1.81786255
C     -6.31055372     3.29717543     1.55226364
C     -5.64541048     2.29671566     2.13501404
C     -4.29063136     1.94063376     1.77679543
C     -3.57710759     1.00177017     2.40702704
C     -2.22131318     0.62073910     1.99108206
O     -1.50955043    -0.02459936     2.73866442
O     -1.85150945     1.05671250     0.74429113
C     -0.54308000     0.63731474     0.35241493
C      0.50781591     1.68580845     0.78955759
O      0.62405661     1.70404585     2.21330728
C      1.86988078     1.40467866     0.10349367
C      2.96009507     2.31295165     0.61802027
C      2.97385522     3.65971940     0.20484646
O      2.13111451     4.10725914    -0.79205990
C      3.86268098     4.54647922     0.79754294
C      4.75925820     4.13400406     1.77218844
O      5.61399493     5.06209546     2.33938451
C      4.75887958     2.78821721     2.13887627
C      3.88229528     1.88110984     1.57117549
C      3.91658833     0.45365725     2.04001060
O      2.89969519     0.13943004     2.97086895
O      1.70279597     1.44906710    -1.32821819
C      0.87748937     0.37817294    -1.80471611
C      0.81427317     0.38995425    -3.33331069
O      2.07361973     0.17710609    -3.92036620
C     -0.54363360     0.39277998    -1.17811884
O     -1.28895924    -0.79006535    -1.47340256
C     -0.55938336    -1.99440699    -1.24430018
O      0.48209268    -2.19799049    -2.20661090
C      1.29537918    -3.32829495    -1.90043339
C      2.54120089    -3.33329764    -2.78046679
O      3.29729922    -2.15162308    -2.63608055
C      0.45924581    -4.62403698    -2.03865463
O      0.02461127    -4.82076725    -3.36938628
C     -0.76110762    -4.57577544    -1.08862786
O     -1.63677043    -5.63885832    -1.41777676
C     -1.50935208    -3.22258541    -1.18150913
O     -2.43046192    -3.13534148    -0.10423861
C     -1.82443639    -2.79839580     1.14175320
O     -0.48648678    -3.29692786     1.32399456
C      0.14798067    -2.78061942     2.50567546
C      1.61674484    -3.20538142     2.58445705
O      2.28584214    -2.63387485     3.68813747
C     -0.63583570    -3.24967021     3.75406536
O     -0.58719786    -4.65451845     3.90015744
C     -2.10989747    -2.78918589     3.67453512
O     -2.84317286    -3.33286887     4.75299866
C     -2.73759098    -3.21135976     2.32713759
O     -4.03874080    -2.65719628     2.20333764
C      3.90675595    -2.10685089    -1.40838076
O      3.76954400    -2.95096324    -0.54094490
C      4.79821742    -0.94338638    -1.15616061
C      5.88675671    -1.07994781    -0.27663016
C      6.71842560    -0.03323255    -0.02277974
C      6.50241024     1.22211327    -0.63666756
C      7.33432206     2.32626152    -0.39820028
C      7.10369353     3.54980979    -0.99939213
O      7.95530795     4.60159544    -0.73487652
C      5.99573842     3.67982381    -1.87168681
C      5.17649907     2.62629911    -2.12433365
C      5.40546536     1.36916539    -1.51949039
C      4.57194420     0.26628562    -1.76223827
H     -4.68014282    -0.11807310     0.07004005
H     -4.72995108    -1.88041569     0.12300450
H     -3.26398688    -1.04984622    -0.37947309
H     -5.89781759    -0.94937359    -1.93669952
H     -4.57530433    -2.00550440    -2.35246349
H     -4.30540070     1.03418739    -2.18543839
H     -3.06864011    -0.07201319    -2.70994588
H     -4.49690464    -0.74368141    -4.67368937
H     -4.09440830     0.95448545    -4.67748002
H     -6.77811483    -0.27017739    -3.87411502
H     -6.46763284     0.73034910    -5.26255412
H     -5.95564704     2.68568213    -3.64224503
H     -7.88758019     0.87311556    -2.14759787
H     -6.96317234     3.79307932    -1.72053591
H     -8.96755658     2.00266725    -0.28835251
H     -8.09319342     4.91355309     0.11079859
H    -10.40271302     4.48207481     0.05314920
H     -8.24084578     2.80594559     2.30333652
H     -7.80317612     4.48050064     2.52723591
H     -5.80084133     3.89438350     0.81261129
H     -6.12181655     1.68964382     2.88914151
H     -3.85800975     2.46188270     0.93602179
H     -3.98665817     0.48816017     3.25899030
H     -0.33009382    -0.30172598     0.86838916
H      0.15337625     2.68141688     0.48793614
H     -0.13751104     1.19701935     2.56893543
H      2.14184637     0.36861824     0.33352666
H      1.74961499     3.31509355    -1.22103046
H      3.85747488     5.57557328     0.49233687
H      6.15394217     4.65817018     3.04106948
H      5.44947822     2.45016296     2.88910920
H      3.84191470    -0.23753189     1.19352712
H      4.87564493     0.23299806     2.52268501
H      2.10802390     0.69442480     2.77722535
H      1.38323467    -0.54344929    -1.49656716
H      0.44349524     1.35690858    -3.68726580
H      0.12275254    -0.38166906    -3.69613061
H      2.45865882    -0.66164369    -3.56838163
H     -1.11043970     1.21474779    -1.63503352
H     -0.06542693    -1.89871406    -0.27209233
H      1.60635769    -3.20270289    -0.85246579
H      2.24038502    -3.40985781    -3.83125152
H      3.18996254    -4.18737100    -2.55256775
H      1.09104413    -5.49031336    -1.78407719
H     -0.68091331    -5.49784468    -3.37936111
H     -0.43873726    -4.72979519    -0.05017267
H     -2.46323165    -5.56326456    -0.90855266
H     -2.11055173    -3.22613382    -2.09900677
H     -1.76020832    -1.70372783     1.14868342
H      0.09976450    -1.68498530     2.44245054
H      1.66985417    -4.29217589     2.70760959
H      2.15547619    -2.96436439     1.65901095
H      2.49484467    -1.68493025     3.51443910
H     -0.16557301    -2.84326490     4.66305229
H     -0.76359425    -5.07846364     3.03808941
H     -2.18510323    -1.69662905     3.76801195
H     -2.52282764    -4.23950758     4.92944452
H     -2.84331508    -4.30324656     2.30285191
H     -4.57332820    -2.89699417     2.98172743
H      6.04567120    -2.03533051     0.19495906
H      7.55052216    -0.14973723     0.65034441
H      8.17664792     2.22970926     0.26167973
H      7.69599050     5.39640853    -1.23342307
H      5.80543699     4.63179203    -2.33401393
H      4.33287639     2.73681706    -2.78449007
H      3.73458005     0.38419592    -2.42433531

