%chk=cand02_naphthoyl_6OH_conf02.chk
%nprocshared=8
%mem=16GB
#P B3LYP/6-31G(d) SCRF=(PCM,Solvent=Water) Pop=MK NoSymm

cand02_naphthoyl_6OH conformer 2 (Boltzmann pop=0.064)

0 1
C     -2.29642542    -0.30330228    -5.92954604
C     -3.47313550    -0.93567982    -5.20259364
C     -3.50309982    -0.60380863    -3.70950985
C     -4.64223835    -1.30126397    -2.96542382
C     -4.66892902    -0.98833903    -1.46389613
C     -5.08990762     0.40749376    -1.15094701
C     -6.36530309     0.78910237    -1.08542732
C     -6.77334664     2.13639732    -0.73192343
C     -7.95442922     2.42020587    -0.17971208
C     -8.33349774     3.77049182     0.36224786
O     -9.75120928     3.97408723     0.36875868
C     -7.75856975     3.98950618     1.77514326
C     -6.28159803     3.75359258     1.82828912
C     -5.70938134     2.62001157     2.24781857
C     -4.31340218     2.31292531     2.02600907
C     -3.71216630     1.20847968     2.48161874
C     -2.33754652     0.84611326     2.10340442
O     -1.64502772     0.17307134     2.84436460
O     -1.93812586     1.32615918     0.88132705
C     -0.66713111     0.83186081     0.45848557
C      0.45006036     1.81119448     0.88939377
O      0.59830659     1.78074605     2.31027185
C      1.77772678     1.47938129     0.16049725
C      2.91925933     2.33825148     0.64946652
C      2.97312706     3.68816995     0.24972376
O      2.11458766     4.18122713    -0.71158080
C      3.91810616     4.53196367     0.81796180
C      4.83250076     4.07294201     1.75437721
O      5.74672898     4.95811607     2.29679113
C      4.78916378     2.72478721     2.10909741
C      3.85606520     1.86032581     1.56546337
C      3.84546431     0.43036868     2.02548399
O      2.85971619     0.16082942     3.00225909
O      1.57171847     1.55051616    -1.26514317
C      0.68346350     0.52806692    -1.73590233
C      0.57783867     0.57813293    -3.26046086
O      1.80399352     0.31402208    -3.89451884
C     -0.71954031     0.59891149    -1.07251162
O     -1.52695324    -0.54804926    -1.35165129
C     -0.84424273    -1.78605587    -1.16451068
O      0.13856681    -2.02543149    -2.17770569
C      0.92325473    -3.18305313    -1.90313964
C      2.13616056    -3.23174085    -2.82593652
O      2.95094092    -2.08902390    -2.68714509
C      0.03579606    -4.44655609    -2.00431726
O     -0.47486256    -4.61503174    -3.31178865
C     -1.13304132    -4.36110608    -0.99347669
O     -2.05705286    -5.39314262    -1.28848418
C     -1.83535136    -2.98118315    -1.05207653
O     -2.70320088    -2.85483970     0.06677873
C     -2.01398641    -2.55601062     1.27922644
O     -0.66258987    -3.04535622     1.36077287
C      0.04367031    -2.59511031     2.53063754
C      1.48389919    -3.11411617     2.52867269
O      2.23669069    -2.62305073     3.61572993
C     -0.68257570    -3.05282116     3.82148646
O     -0.62873639    -4.45590830     3.97919536
C     -2.15935196    -2.59744546     3.81833070
O     -2.82753809    -3.17239510     4.92363177
C     -2.83541920    -3.03260702     2.50244291
O     -4.16917375    -2.55668286     2.46444107
C      3.59592132    -2.09255651    -1.47669320
O      3.44327757    -2.94327600    -0.61825148
C      4.54659277    -0.97539540    -1.23139638
C      5.65086935    -1.17628412    -0.38443103
C      6.53680361    -0.17331343    -0.13781051
C      6.36281643     1.10057649    -0.72627715
C      7.25093322     2.16128818    -0.49366482
C      7.06112601     3.40399889    -1.06933175
O      7.96681050     4.41137232    -0.81157002
C      5.93769597     3.59899115    -1.90916301
C      5.06391808     2.58862011    -2.15512692
C      5.25053449     1.31248490    -1.57607617
C      4.36060121     0.25322537    -1.81251602
H     -1.34696243    -0.67448959    -5.54093841
H     -2.31473206    -0.51696164    -7.00013396
H     -2.29532484     0.78125983    -5.81053002
H     -3.44741870    -2.02555067    -5.32944459
H     -4.41738063    -0.61694710    -5.66210513
H     -2.54593681    -0.88404763    -3.25542639
H     -3.57780741     0.48075268    -3.56944388
H     -4.56040117    -2.38384666    -3.12320331
H     -5.60140559    -1.01694667    -3.41303521
H     -3.67941753    -1.17540438    -1.03053586
H     -5.34431223    -1.68097779    -0.94781246
H     -4.31211379     1.13113829    -0.96015399
H     -7.14784827     0.06672641    -1.25698076
H     -6.03648206     2.91191101    -0.87524468
H     -8.64957606     1.61885002     0.00172688
H     -7.90516789     4.53775278    -0.30262898
H    -10.13013326     3.85003014    -0.51877978
H     -8.26638608     3.30677302     2.46270094
H     -8.00585794     4.99787462     2.12362960
H     -5.65975247     4.49958952     1.35867088
H     -6.30554314     1.84075815     2.69745323
H     -3.76372550     2.99683287     1.39660410
H     -4.24579401     0.51959827     3.11327832
H     -0.50295343    -0.12440757     0.96039087
H      0.14094181     2.83182120     0.62386817
H     -0.18922406     1.31605725     2.66867892
H      2.01221069     0.43015511     0.37068145
H      1.68879659     3.41020120    -1.13737130
H      3.94327170     5.56380680     0.52316265
H      6.29584948     4.52354957     2.97275776
H      5.49135474     2.35112602     2.83118051
H      3.69985662    -0.25183697     1.18093264
H      4.81450217     0.16292731     2.46224327
H      2.07673014     0.73584170     2.83258325
H      1.15212846    -0.42298336    -1.46048647
H      0.24506835     1.56990789    -3.58204183
H     -0.16275213    -0.14921296    -3.61272360
H      2.15940618    -0.54771524    -3.56796860
H     -1.26434258     1.44623712    -1.50950499
H     -0.29790076    -1.71136091    -0.21926072
H      1.27705354    -3.06871949    -0.86765347
H      1.79797812    -3.27760393    -3.86698121
H      2.75169361    -4.11812727    -2.63163907
H      0.64794754    -5.33676116    -1.78766155
H     -1.19244181    -5.27916620    -3.29095837
H     -0.76928761    -4.53177491     0.02918308
H     -2.84599292    -5.31133220    -0.72422707
H     -2.47422340    -2.97433491    -1.94239373
H     -1.96604662    -1.46076677     1.31714275
H      0.05893664    -1.49709075     2.49369185
H      1.46293813    -4.20582535     2.62154496
H      1.99794838    -2.88165494     1.58714510
H      2.45902327    -1.67150005     3.47758087
H     -0.16370567    -2.62293867     4.69392623
H     -1.24603324    -4.71876586     4.69061228
H     -2.22578905    -1.50395522     3.91534436
H     -3.78558717    -3.01971930     4.84866467
H     -2.87008228    -4.13038686     2.48880043
H     -4.56997076    -2.77159087     1.60145443
H      5.77817291    -2.14569451     0.06766193
H      7.38037857    -0.33904995     0.51022780
H      8.10500584     2.01512707     0.14153919
H      7.73087900     5.22552747    -1.29028883
H      5.77986232     4.56590262    -2.35219664
H      4.20871508     2.74870530    -2.78976252
H      3.51184742     0.42070179    -2.44892896

