%chk=t06_amide_split_C12_conf03.chk
%nprocshared=8
%mem=16GB
#P B3LYP/6-31G(d) SCRF=(PCM,Solvent=Water) Pop=MK NoSymm

t06_amide_split_C12 conformer 3 (Boltzmann pop=0.128)

0 1
O      0.84976956    -0.57091177     3.02101146
C      0.94941320     0.84106856     2.83281713
C     -0.46505032     1.48828630     2.92253252
O     -0.37394738     2.78598004     3.48685255
C     -1.14088751     1.52913454     1.51034208
C     -2.64853274     1.56877021     1.57172468
C     -3.38498989     0.36385601     1.58101535
O     -2.76078404    -0.86452838     1.51908531
C     -4.77188430     0.40600469     1.63899388
C     -5.44995724     1.61528003     1.67268845
O     -6.82943814     1.64095519     1.68541998
C     -4.70839041     2.79325828     1.69479618
C     -3.32552708     2.78559481     1.65847356
C     -2.59942750     4.09176901     1.83114501
O     -1.50216855     4.30296365     0.96967050
O     -0.61722388     0.47829949     0.67411272
C      0.74581622     0.71709511     0.30018051
C      1.35895809    -0.55234815    -0.28079109
O      0.63739013    -1.02778428    -1.39108710
C      1.58170526     1.28741231     1.48842932
O      1.68464206     2.70949066     1.47766909
C      2.08126297     3.25493476     0.22936085
O      1.00161988     3.37314475    -0.70777864
C      1.37431668     4.04609722    -1.91495228
C      0.14065351     4.21244552    -2.81515313
O     -0.60534883     3.01250456    -2.90874342
C     -1.81100222     3.14064731    -2.26661117
O     -2.24073060     4.18242571    -1.80632391
C     -2.62526691     1.90794203    -2.10898677
C     -2.02026047     0.67071320    -1.96947757
C     -2.77511734    -0.44733814    -1.70727936
C     -4.16251507    -0.37257137    -1.59702246
C     -4.96695651    -1.57109602    -1.27717845
C     -4.42559619    -2.62110097    -0.53779918
C     -5.17753796    -3.73116776    -0.22312300
C     -6.48742761    -3.82077759    -0.64544455
C     -7.04072137    -2.79726857    -1.38662045
C     -6.29034343    -1.68457211    -1.69983651
C     -4.76195664     0.87717852    -1.74692853
C     -4.00374902     1.99828819    -1.99206408
C      2.49721596     3.24723098    -2.62731801
O      2.03054735     1.95780553    -2.98348499
C      3.73774787     3.09732545    -1.71240155
O      4.68396466     2.26738986    -2.36071814
C      3.27902834     2.48183351    -0.37543447
O      4.32256626     2.37771578     0.57720065
C      5.12456522     1.23712433     0.33201537
O      4.39601695     0.02715235     0.05956162
C      5.25775735    -1.06227421    -0.30016854
C      4.41487404    -2.27849850    -0.69041062
O      3.51575804    -2.66872939     0.31791741
C      6.26477216    -1.38188813     0.84257149
O      5.65587930    -1.92100381     1.99758388
C      7.06745413    -0.11819222     1.23834778
O      7.87789562    -0.40516888     2.36111023
C      6.08589006     1.03654988     1.52706310
O      6.76052051     2.24505488     1.82653387
C      2.04935979    -1.22098680     2.94152252
O      3.09436820    -0.73769003     2.56096605
C      2.01153623    -2.66856774     3.36361346
C      1.14124420    -3.53285644     2.45354464
C     -0.33688664    -3.14490372     2.48301840
C     -1.20418742    -3.99380215     1.55782374
C     -0.80600317    -3.82568409     0.12142559
O     -1.30040092    -2.93984337    -0.54810429
N      0.15456369    -4.67976621    -0.37239411
C      0.65402884    -4.57279712    -1.72953535
C      0.03998884    -5.61458724    -2.65416032
C     -1.48149410    -5.49465047    -2.76423582
C     -1.94512915    -4.21761285    -3.46683454
C     -3.46155755    -4.15587152    -3.65695992
C     -3.91630860    -2.89766360    -4.37987805
H      1.56387413     1.22332148     3.66078101
H     -1.09256976     0.88647513     3.59408022
H      0.24958902     3.30542331     2.93840114
H     -0.80564201     2.44941543     1.01467000
H     -1.83605231    -0.68972695     1.25416405
H     -5.32322618    -0.51584769     1.63101155
H     -7.16335376     2.55451442     1.72397366
H     -5.24089810     3.72381787     1.75732105
H     -2.20956684     4.15067598     2.85438303
H     -3.29057543     4.93569748     1.71613688
H     -1.78017620     4.27293366     0.02729614
H      0.68697346     1.46666468    -0.49971289
H      1.39935677    -1.32325968     0.49414016
H      2.38720467    -0.38775344    -0.61367193
H     -0.06041467    -1.65223421    -1.09040652
H      2.61069634     0.90460864     1.43991791
H      2.40856270     4.27994692     0.45514743
H      1.76448588     5.03370989    -1.62487149
H      0.42814990     4.51600220    -3.82851525
H     -0.51923481     4.99303944    -2.41811526
H     -0.94679019     0.60315430    -2.00990652
H     -2.28056601    -1.38298816    -1.51522760
H     -3.39671012    -2.56936487    -0.22672276
H     -4.74049662    -4.53219679     0.35091061
H     -7.07595372    -4.68980005    -0.39997184
H     -8.06280258    -2.86824004    -1.72183974
H     -6.72480401    -0.89827653    -2.29259343
H     -5.82672725     0.97168869    -1.61982338
H     -4.46641027     2.96802878    -2.06960297
H      2.78665045     3.75149657    -3.56315407
H      1.05981619     2.03757513    -3.10013117
H      4.22168682     4.06570961    -1.52101671
H      4.19381817     1.55009448    -2.81432973
H      2.95352672     1.46223226    -0.59392729
H      5.71430719     1.47108576    -0.56619244
H      5.82751364    -0.72145052    -1.17868255
H      5.05116238    -3.14043384    -0.92394747
H      3.82216589    -2.06014544    -1.58740100
H      3.41658572    -1.94765617     0.98636626
H      6.96814507    -2.15864625     0.50318107
H      4.82043129    -1.43607463     2.19942866
H      7.74559319     0.19157589     0.42982335
H      7.35432009    -0.92018063     3.00629719
H      5.48280200     0.77341054     2.40702611
H      6.11840224     2.98073004     1.80921667
H      1.64079801    -2.71976532     4.39161741
H      3.03817002    -3.04870099     3.38982155
H      1.24076531    -4.58941516     2.73094227
H      1.51518620    -3.46887596     1.42534446
H     -0.70908269    -3.19988900     3.51308397
H     -0.43351584    -2.09243041     2.19717035
H     -2.25867069    -3.71896826     1.66211344
H     -1.13379622    -5.05013781     1.83468751
H      0.49687417    -5.47145706     0.17533451
H      0.43802390    -3.56363483    -2.09214886
H      1.74794148    -4.65207655    -1.70920269
H      0.30634207    -6.61173172    -2.28289301
H      0.48492832    -5.54292116    -3.65394018
H     -1.88764445    -6.36307113    -3.29793239
H     -1.92249998    -5.53682936    -1.76175512
H     -1.45010640    -4.13377491    -4.44120126
H     -1.61461010    -3.34122084    -2.89854876
H     -3.79513193    -5.04542722    -4.20604525
H     -3.95091507    -4.22745860    -2.67782766
H     -3.48138327    -2.83700089    -5.37875663
H     -3.60887168    -1.99999453    -3.84180569
H     -5.00189457    -2.85870373    -4.49008563

