%chk=t06_amide_split_C12_conf02.chk
%nprocshared=8
%mem=16GB
#P B3LYP/6-31G(d) SCRF=(PCM,Solvent=Water) Pop=MK NoSymm

t06_amide_split_C12 conformer 2 (Boltzmann pop=0.180)

0 1
O      0.85967541    -0.54964902     3.05345285
C      0.97986651     0.85907236     2.85250598
C     -0.42394946     1.52959409     2.94396102
O     -0.30912485     2.83289334     3.49098570
C     -1.10828553     1.56328407     1.53558916
C     -2.61499282     1.62219929     1.60496327
C     -3.36567705     0.42660207     1.63485736
O     -2.75303356    -0.80897715     1.59484638
C     -4.75209037     0.48731997     1.69161080
C     -5.41515292     1.70540251     1.70618761
O     -6.79420345     1.74890263     1.72107406
C     -4.65921192     2.87434541     1.70948228
C     -3.27676021     2.84822915     1.67453622
C     -2.53174290     4.14620936     1.82269064
O     -1.46079762     4.33950421     0.92537831
O     -0.60469540     0.49362857     0.71073456
C      0.75865563     0.70717305     0.32424626
C      1.34980979    -0.57737902    -0.24643414
O      0.62033544    -1.04846567    -1.35432320
C      1.60957455     1.28223686     1.49951162
O      1.72931342     2.70297583     1.47255623
C      2.10059104     3.23072370     0.20962405
O      1.00054636     3.33799822    -0.70465972
C      1.34719333     3.98590145    -1.93262266
C      0.09190412     4.13844320    -2.80459669
O     -0.65122019     2.93436824    -2.87279172
C     -1.86702588     3.07509975    -2.25227030
O     -2.30253580     4.12496572    -1.81678134
C     -2.68330097     1.84390464    -2.08609875
C     -2.07564321     0.62295625    -1.84739517
C     -2.83411641    -0.49137952    -1.58333206
C     -4.22491612    -0.42754547    -1.57892621
C     -5.02411524    -1.63647517    -1.28779632
C     -4.64925532    -2.49955142    -0.26078037
C     -5.36036059    -3.65175303    -0.01121284
C     -6.46407802    -3.96126243    -0.77943511
C     -6.85774762    -3.11223702    -1.79399044
C     -6.14660885    -1.95919754    -2.04683517
C     -4.83065811     0.80120044    -1.83150300
C     -4.06836727     1.92146606    -2.07057867
C      2.45230465     3.17079006    -2.65480999
O      1.97612910     1.87586807    -2.97667033
C      3.71295494     3.03441711    -1.76503193
O      4.64334298     2.19049658    -2.41806361
C      3.28255571     2.44374996    -0.40779515
O      4.34548999     2.35314651     0.52473857
C      5.13450795     1.20094890     0.29085928
O      4.39386934    -0.00803117     0.04822693
C      5.24456087    -1.10861442    -0.30389422
C      4.39264363    -2.32525968    -0.67284576
O      3.50418126    -2.70628187     0.34854074
C      6.26026887    -1.41855110     0.83373115
O      5.65959730    -1.93651655     2.00279974
C      7.07598274    -0.15482715     1.20225855
O      7.89279869    -0.42983707     2.32348077
C      6.10638107     1.01271608     1.47956423
O      6.79293277     2.22106681     1.75132160
C      2.04805199    -1.21932370     2.96658536
O      3.09621369    -0.75615746     2.56990282
C      1.99133760    -2.66238959     3.40183230
C      1.11104073    -3.52517146     2.49966964
C     -0.36064796    -3.11260711     2.51645804
C     -1.24144636    -3.96714710     1.60883033
C     -0.83692373    -3.84450679     0.16950055
O     -1.31636200    -2.97068431    -0.52632985
N      0.11400656    -4.72612116    -0.29429701
C      0.62462778    -4.66679592    -1.65079047
C     -0.10480667    -5.62315725    -2.58458177
C     -1.58796302    -5.28429631    -2.74997987
C     -1.83334959    -3.98965954    -3.52639242
C     -3.31784408    -3.69105607    -3.73829618
C     -3.55430122    -2.42672672    -4.54982689
H      1.60558737     1.23906841     3.67300204
H     -1.05617488     0.94594791     3.62705325
H      0.32483514     3.33285167     2.93645691
H     -0.76466229     2.47289340     1.02553235
H     -1.82446883    -0.64553371     1.33715813
H     -5.31657765    -0.42647279     1.70234212
H     -7.11628385     2.66741572     1.73029703
H     -5.17989227     3.81245085     1.75687695
H     -2.11029316     4.20469854     2.83331070
H     -3.21625583     4.99768038     1.72448601
H     -1.76836703     4.27843802    -0.00621534
H      0.70450572     1.44564941    -0.48596898
H      1.37898783    -1.34258364     0.53451269
H      2.38019021    -0.43107619    -0.58154551
H     -0.07213796    -1.68036303    -1.05606677
H      2.63362185     0.88679846     1.44821886
H      2.43568647     4.25771424     0.41377534
H      1.74583629     4.97788852    -1.67033606
H      0.35339274     4.43643917    -3.82654942
H     -0.56118257     4.91885399    -2.39642929
H     -1.00134494     0.56579178    -1.82146128
H     -2.35317036    -1.41940851    -1.32431445
H     -3.80951587    -2.23263514     0.35796013
H     -5.05818959    -4.30846550     0.78841225
H     -7.02144955    -4.86287646    -0.58377757
H     -7.72188249    -3.35279485    -2.39173895
H     -6.44587997    -1.30297692    -2.84615210
H     -5.90466642     0.87318423    -1.80127974
H     -4.53466155     2.87950461    -2.22912203
H      2.72195183     3.65710042    -3.60589633
H      1.00375999     1.95525246    -3.07754505
H      4.20274983     4.00498506    -1.60181453
H      4.14234436     1.46397706    -2.84432330
H      2.95051883     1.42120371    -0.60113650
H      5.71594791     1.41431722    -0.61792877
H      5.80906860    -0.78257807    -1.19144008
H      5.02356988    -3.19097970    -0.90703201
H      3.79032367    -2.11241940    -1.56474832
H      3.40948350    -1.97929480     1.01115381
H      6.95513031    -2.20502922     0.49917265
H      4.82423516    -1.45031367     2.20203271
H      7.75027999     0.13608270     0.38356481
H      7.37007062    -0.92976103     2.98115840
H      5.51016560     0.76955614     2.36996068
H      6.15621845     2.96128409     1.72572438
H      1.61881682    -2.69872315     4.42988840
H      3.01303347    -3.05526123     3.43304006
H      1.19189352    -4.57898715     2.79309567
H      1.49079660    -3.48268575     1.47244420
H     -0.73578797    -3.13836106     3.54662895
H     -0.43821526    -2.06515424     2.20781612
H     -2.29077484    -3.66999305     1.70178121
H     -1.19275966    -5.01732230     1.91265105
H      0.43275783    -5.51212920     0.27552581
H      0.53003766    -3.63587262    -2.00408524
H      1.70159637    -4.87478768    -1.63109942
H      0.00194567    -6.64164550    -2.19181520
H      0.37729607    -5.63406946    -3.56952892
H     -2.10782479    -6.10764499    -3.25578273
H     -2.05514298    -5.20777789    -1.76153953
H     -1.32753832    -4.04252876    -4.49751318
H     -1.36632492    -3.14784413    -3.00300532
H     -3.79445313    -4.54811820    -4.23089660
H     -3.81153093    -3.61402416    -2.76140576
H     -3.10762736    -2.50582937    -5.54232784
H     -3.10777942    -1.55678578    -4.06579451
H     -4.61769295    -2.21903282    -4.68401125

