%chk=t06_amide_split_C12_conf01.chk
%nprocshared=8
%mem=16GB
#P B3LYP/6-31G(d) SCRF=(PCM,Solvent=Water) Pop=MK NoSymm

t06_amide_split_C12 conformer 1 (Boltzmann pop=0.266)

0 1
O      0.77697261    -0.59177034     3.00887618
C      0.90775649     0.80812713     2.75565241
C     -0.47340085     1.51036953     2.91981165
O     -0.29542698     2.82419395     3.42249092
C     -1.24360629     1.52509249     1.55649578
C     -2.73849688     1.65660896     1.71318193
C     -3.53984005     0.49980381     1.82805814
O     -2.99645856    -0.76685117     1.77905177
C     -4.91439502     0.62745861     1.98059661
C     -5.51868620     1.87530720     2.00521269
O     -6.89013217     1.98371213     2.11177843
C     -4.71181691     3.00642664     1.92022322
C     -3.33781222     2.91463996     1.78797150
C     -2.53163780     4.18377742     1.84735325
O     -1.47094205     4.28400833     0.92230109
O     -0.83023524     0.41408225     0.73698934
C      0.51051531     0.57978046     0.25514777
C      1.03896048    -0.73887796    -0.29523700
O      0.19016622    -1.27392978    -1.27818444
C      1.45052365     1.17559058     1.34951485
O      1.59357697     2.59108448     1.25920315
C      1.94227990     3.05458970    -0.03637775
O      0.82255207     3.14831712    -0.92812581
C      1.15213407     3.72705090    -2.19566325
C     -0.12145373     3.86712976    -3.04396847
O     -0.91993613     2.69968917    -2.98713740
C     -2.04856549     2.92640723    -2.24172315
O     -2.37181986     4.00988279    -1.79059974
C     -2.92120466     1.75633821    -1.96717687
C     -2.39780118     0.47694709    -1.88748763
C     -3.20378788    -0.58372373    -1.54708035
C     -4.55962971    -0.40262502    -1.27776589
C     -5.41037458    -1.53335114    -0.84907250
C     -4.87323650    -2.60086059    -0.13242637
C     -5.66824566    -3.64084861     0.29503646
C     -7.01851301    -3.64008545     0.01342232
C     -7.56964315    -2.59699150    -0.70173830
C     -6.77559152    -1.55494882    -1.12954724
C     -5.07645246     0.88904352    -1.36678648
C     -4.26835586     1.94945720    -1.70339255
C      2.21536462     2.84716248    -2.90534279
O      1.69118755     1.54998163    -3.14318596
C      3.49544840     2.73323369    -2.04219237
O      4.40050079     1.85113190    -2.67822613
C      3.08830865     2.21277349    -0.64972726
O      4.17287537     2.13486827     0.25773359
C      4.94149590     0.96777119     0.03310497
O      4.17949115    -0.23286442    -0.18192985
C      5.00922374    -1.35104624    -0.52621183
C      4.12626899    -2.55729444    -0.84862034
O      3.20466629    -2.84773344     0.17419475
C      6.03954748    -1.65787380     0.59901434
O      5.44942391    -2.15521728     1.78117109
C      6.87586804    -0.40002293     0.93961188
O      7.70452605    -0.66966218     2.05353818
C      5.92493555     0.78371693     1.21255281
O      6.63055889     1.98641279     1.45815346
C      1.94653037    -1.28506220     2.86922087
O      2.97848877    -0.84604351     2.40774310
C      1.89803289    -2.71974408     3.33400973
C      0.88425932    -3.56947600     2.56970037
C     -0.56298867    -3.13459985     2.79539237
C     -1.57628123    -3.99661220     2.04880262
C     -1.40727390    -3.88784912     0.56260427
O     -1.77384876    -2.88109344    -0.01063621
N     -0.80914189    -4.93620176    -0.10331727
C     -0.42675676    -4.80658817    -1.49720341
C      1.05039468    -4.47585251    -1.66334902
C      1.46535497    -4.21478053    -3.11539853
C      0.92002471    -2.89865460    -3.67240387
C      1.39625896    -2.59135275    -5.09203023
C      0.87358437    -1.25810162    -5.60520720
H      1.59483138     1.20058118     3.51916171
H     -1.07238294     0.95883047     3.65715375
H      0.29564699     3.30098619     2.80360007
H     -0.89350817     2.40252153     0.99770065
H     -2.09149236    -0.67121042     1.42109681
H     -5.51611198    -0.25942742     2.05288272
H     -7.16977112     2.91627173     2.12203569
H     -5.18504296     3.96895734     1.97636582
H     -2.08691323     4.27721670     2.84529136
H     -3.17997942     5.05887825     1.71630351
H     -1.79888066     4.20784965    -0.00117466
H      0.41783308     1.28824778    -0.57822491
H      1.14764699    -1.45429419     0.52458780
H      2.02887685    -0.62417756    -0.74605746
H     -0.52620983    -1.78776602    -0.84295082
H      2.46107545     0.75648676     1.24587729
H      2.30580115     4.08132889     0.11304033
H      1.58293742     4.71973416    -1.99418377
H      0.12326366     4.06229177    -4.09457099
H     -0.72835438     4.70986436    -2.69166510
H     -1.34204707     0.33169544    -2.03949888
H     -2.77164376    -1.56204297    -1.43439820
H     -3.81813029    -2.61191643     0.08256059
H     -5.23369470    -4.45747872     0.84866387
H     -7.64065985    -4.45423170     0.34803084
H     -8.62377490    -2.59767552    -0.92739082
H     -7.20967857    -0.75285170    -1.70118838
H     -6.11047514     1.06303991    -1.12282583
H     -4.66406391     2.95058411    -1.74262232
H      2.46782203     3.27348741    -3.88925135
H      0.71401688     1.66037576    -3.15587322
H      3.99993705     3.70406548    -1.93467067
H      3.88040848     1.10693015    -3.04639963
H      2.72563731     1.19172422    -0.79043397
H      5.51503351     1.15795867    -0.88578255
H      5.56266936    -1.05418028    -1.43072912
H      4.73202185    -3.45410056    -1.02494286
H      3.54980717    -2.36873345    -1.76184104
H      3.18169315    -2.11003000     0.83153278
H      6.71954738    -2.45677633     0.26340297
H      4.64406011    -1.62967852     2.00228016
H      7.54260759    -0.12916091     0.10794944
H      7.18502165    -1.15486883     2.72478884
H      5.33591639     0.56250772     2.11339162
H      6.00359550     2.73475363     1.42372136
H      1.66212117    -2.72936565     4.40222057
H      2.90174516    -3.14739248     3.24019870
H      0.98915437    -4.62360231     2.85461454
H      1.11414195    -3.53772705     1.49899483
H     -0.78020291    -3.13599324     3.87031116
H     -0.67685791    -2.09266257     2.47764383
H     -2.59710136    -3.69281867     2.30271101
H     -1.48263209    -5.04335586     2.35335072
H     -0.36241562    -5.69842541     0.40912970
H     -0.68238014    -5.72839050    -2.03142155
H     -1.04967015    -4.02137142    -1.93705598
H      1.64645470    -5.29096772    -1.23522593
H      1.29031615    -3.59827436    -1.05318696
H      2.55944304    -4.20728886    -3.19579405
H      1.13746776    -5.04772387    -3.74747442
H      1.21097426    -2.07548129    -3.01012977
H     -0.17521354    -2.90557610    -3.64855402
H      2.49326211    -2.59976528    -5.11647765
H      1.08931204    -3.40353390    -5.76311250
H      1.22815190    -1.03920525    -6.61443406
H      1.19009659    -0.43706464    -4.95962813
H     -0.21710611    -1.24538887    -5.62930627

